*HEADING
Zhaqing suspension bridge global screening model - LC01_G_DEAD DEAD_LOAD
** Abaqus/CalculiX common-keyword S4 shell + B31/T3D2 deck. Units N-mm-tonne-s.
** No calibrated fabrication-state cable prestress is included.
** FORCE_FOUND_PRESTRESS H_MAIN=716.150205kN T_TOWER=770.026785kN FIELD_RN=0.0053
** ----------------------------------------------------------------
** NODES
*NODE, NSET=NALL
1, 0., -2750, 0.
2, 0., -2350, 0.
3, 0., -783.333333, 0.
4, 0., 0., 0.
5, 0., 783.333333, 0.
6, 0., 2350, 0.
7, 0., 2750, 0.
8, 1000, -2750, 0.
9, 1000, -2350, 0.
10, 1000, -783.333333, 0.
11, 1000, 0., 0.
12, 1000, 783.333333, 0.
13, 1000, 2350, 0.
14, 1000, 2750, 0.
15, 2000, -2750, 0.
16, 2000, -2350, 0.
17, 2000, -783.333333, 0.
18, 2000, 0., 0.
19, 2000, 783.333333, 0.
20, 2000, 2350, 0.
21, 2000, 2750, 0.
22, 3000, -2750, 0.
23, 3000, -2350, 0.
24, 3000, -783.333333, 0.
25, 3000, 0., 0.
26, 3000, 783.333333, 0.
27, 3000, 2350, 0.
28, 3000, 2750, 0.
29, 4000, -2750, 0.
30, 4000, -2350, 0.
31, 4000, -783.333333, 0.
32, 4000, 0., 0.
33, 4000, 783.333333, 0.
34, 4000, 2350, 0.
35, 4000, 2750, 0.
36, 5000, -2750, 0.
37, 5000, -2350, 0.
38, 5000, -783.333333, 0.
39, 5000, 0., 0.
40, 5000, 783.333333, 0.
41, 5000, 2350, 0.
42, 5000, 2750, 0.
43, 6000, -2750, 0.
44, 6000, -2350, 0.
45, 6000, -783.333333, 0.
46, 6000, 0., 0.
47, 6000, 783.333333, 0.
48, 6000, 2350, 0.
49, 6000, 2750, 0.
50, 7000, -2750, 0.
51, 7000, -2350, 0.
52, 7000, -783.333333, 0.
53, 7000, 0., 0.
54, 7000, 783.333333, 0.
55, 7000, 2350, 0.
56, 7000, 2750, 0.
57, 8000, -2750, 0.
58, 8000, -2350, 0.
59, 8000, -783.333333, 0.
60, 8000, 0., 0.
61, 8000, 783.333333, 0.
62, 8000, 2350, 0.
63, 8000, 2750, 0.
64, 9000, -2750, 0.
65, 9000, -2350, 0.
66, 9000, -783.333333, 0.
67, 9000, 0., 0.
68, 9000, 783.333333, 0.
69, 9000, 2350, 0.
70, 9000, 2750, 0.
71, 10000, -2750, 0.
72, 10000, -2350, 0.
73, 10000, -783.333333, 0.
74, 10000, 0., 0.
75, 10000, 783.333333, 0.
76, 10000, 2350, 0.
77, 10000, 2750, 0.
78, 11000, -2750, 0.
79, 11000, -2350, 0.
80, 11000, -783.333333, 0.
81, 11000, 0., 0.
82, 11000, 783.333333, 0.
83, 11000, 2350, 0.
84, 11000, 2750, 0.
85, 12000, -2750, 0.
86, 12000, -2350, 0.
87, 12000, -783.333333, 0.
88, 12000, 0., 0.
89, 12000, 783.333333, 0.
90, 12000, 2350, 0.
91, 12000, 2750, 0.
92, 13000, -2750, 0.
93, 13000, -2350, 0.
94, 13000, -783.333333, 0.
95, 13000, 0., 0.
96, 13000, 783.333333, 0.
97, 13000, 2350, 0.
98, 13000, 2750, 0.
99, 14000, -2750, 0.
100, 14000, -2350, 0.
101, 14000, -783.333333, 0.
102, 14000, 0., 0.
103, 14000, 783.333333, 0.
104, 14000, 2350, 0.
105, 14000, 2750, 0.
106, 15000, -2750, 0.
107, 15000, -2350, 0.
108, 15000, -783.333333, 0.
109, 15000, 0., 0.
110, 15000, 783.333333, 0.
111, 15000, 2350, 0.
112, 15000, 2750, 0.
113, 16000, -2750, 0.
114, 16000, -2350, 0.
115, 16000, -783.333333, 0.
116, 16000, 0., 0.
117, 16000, 783.333333, 0.
118, 16000, 2350, 0.
119, 16000, 2750, 0.
120, 17000, -2750, 0.
121, 17000, -2350, 0.
122, 17000, -783.333333, 0.
123, 17000, 0., 0.
124, 17000, 783.333333, 0.
125, 17000, 2350, 0.
126, 17000, 2750, 0.
127, 18000, -2750, 0.
128, 18000, -2350, 0.
129, 18000, -783.333333, 0.
130, 18000, 0., 0.
131, 18000, 783.333333, 0.
132, 18000, 2350, 0.
133, 18000, 2750, 0.
134, 19000, -2750, 0.
135, 19000, -2350, 0.
136, 19000, -783.333333, 0.
137, 19000, 0., 0.
138, 19000, 783.333333, 0.
139, 19000, 2350, 0.
140, 19000, 2750, 0.
141, 20000, -2750, 0.
142, 20000, -2350, 0.
143, 20000, -783.333333, 0.
144, 20000, 0., 0.
145, 20000, 783.333333, 0.
146, 20000, 2350, 0.
147, 20000, 2750, 0.
148, 21000, -2750, 0.
149, 21000, -2350, 0.
150, 21000, -783.333333, 0.
151, 21000, 0., 0.
152, 21000, 783.333333, 0.
153, 21000, 2350, 0.
154, 21000, 2750, 0.
155, 22000, -2750, 0.
156, 22000, -2350, 0.
157, 22000, -783.333333, 0.
158, 22000, 0., 0.
159, 22000, 783.333333, 0.
160, 22000, 2350, 0.
161, 22000, 2750, 0.
162, 23000, -2750, 0.
163, 23000, -2350, 0.
164, 23000, -783.333333, 0.
165, 23000, 0., 0.
166, 23000, 783.333333, 0.
167, 23000, 2350, 0.
168, 23000, 2750, 0.
169, 24000, -2750, 0.
170, 24000, -2350, 0.
171, 24000, -783.333333, 0.
172, 24000, 0., 0.
173, 24000, 783.333333, 0.
174, 24000, 2350, 0.
175, 24000, 2750, 0.
176, 25000, -2750, 0.
177, 25000, -2350, 0.
178, 25000, -783.333333, 0.
179, 25000, 0., 0.
180, 25000, 783.333333, 0.
181, 25000, 2350, 0.
182, 25000, 2750, 0.
183, 26000, -2750, 0.
184, 26000, -2350, 0.
185, 26000, -783.333333, 0.
186, 26000, 0., 0.
187, 26000, 783.333333, 0.
188, 26000, 2350, 0.
189, 26000, 2750, 0.
190, 27000, -2750, 0.
191, 27000, -2350, 0.
192, 27000, -783.333333, 0.
193, 27000, 0., 0.
194, 27000, 783.333333, 0.
195, 27000, 2350, 0.
196, 27000, 2750, 0.
197, 28000, -2750, 0.
198, 28000, -2350, 0.
199, 28000, -783.333333, 0.
200, 28000, 0., 0.
201, 28000, 783.333333, 0.
202, 28000, 2350, 0.
203, 28000, 2750, 0.
204, 29000, -2750, 0.
205, 29000, -2350, 0.
206, 29000, -783.333333, 0.
207, 29000, 0., 0.
208, 29000, 783.333333, 0.
209, 29000, 2350, 0.
210, 29000, 2750, 0.
211, 30000, -2750, 0.
212, 30000, -2350, 0.
213, 30000, -783.333333, 0.
214, 30000, 0., 0.
215, 30000, 783.333333, 0.
216, 30000, 2350, 0.
217, 30000, 2750, 0.
218, 31000, -2750, 0.
219, 31000, -2350, 0.
220, 31000, -783.333333, 0.
221, 31000, 0., 0.
222, 31000, 783.333333, 0.
223, 31000, 2350, 0.
224, 31000, 2750, 0.
225, 32000, -2750, 0.
226, 32000, -2350, 0.
227, 32000, -783.333333, 0.
228, 32000, 0., 0.
229, 32000, 783.333333, 0.
230, 32000, 2350, 0.
231, 32000, 2750, 0.
232, 33000, -2750, 0.
233, 33000, -2350, 0.
234, 33000, -783.333333, 0.
235, 33000, 0., 0.
236, 33000, 783.333333, 0.
237, 33000, 2350, 0.
238, 33000, 2750, 0.
239, 34000, -2750, 0.
240, 34000, -2350, 0.
241, 34000, -783.333333, 0.
242, 34000, 0., 0.
243, 34000, 783.333333, 0.
244, 34000, 2350, 0.
245, 34000, 2750, 0.
246, 35000, -2750, 0.
247, 35000, -2350, 0.
248, 35000, -783.333333, 0.
249, 35000, 0., 0.
250, 35000, 783.333333, 0.
251, 35000, 2350, 0.
252, 35000, 2750, 0.
253, 36000, -2750, 0.
254, 36000, -2350, 0.
255, 36000, -783.333333, 0.
256, 36000, 0., 0.
257, 36000, 783.333333, 0.
258, 36000, 2350, 0.
259, 36000, 2750, 0.
260, 37000, -2750, 0.
261, 37000, -2350, 0.
262, 37000, -783.333333, 0.
263, 37000, 0., 0.
264, 37000, 783.333333, 0.
265, 37000, 2350, 0.
266, 37000, 2750, 0.
267, 38000, -2750, 0.
268, 38000, -2350, 0.
269, 38000, -783.333333, 0.
270, 38000, 0., 0.
271, 38000, 783.333333, 0.
272, 38000, 2350, 0.
273, 38000, 2750, 0.
274, 39000, -2750, 0.
275, 39000, -2350, 0.
276, 39000, -783.333333, 0.
277, 39000, 0., 0.
278, 39000, 783.333333, 0.
279, 39000, 2350, 0.
280, 39000, 2750, 0.
281, 40000, -2750, 0.
282, 40000, -2350, 0.
283, 40000, -783.333333, 0.
284, 40000, 0., 0.
285, 40000, 783.333333, 0.
286, 40000, 2350, 0.
287, 40000, 2750, 0.
288, 41000, -2750, 0.
289, 41000, -2350, 0.
290, 41000, -783.333333, 0.
291, 41000, 0., 0.
292, 41000, 783.333333, 0.
293, 41000, 2350, 0.
294, 41000, 2750, 0.
295, 42000, -2750, 0.
296, 42000, -2350, 0.
297, 42000, -783.333333, 0.
298, 42000, 0., 0.
299, 42000, 783.333333, 0.
300, 42000, 2350, 0.
301, 42000, 2750, 0.
302, 43000, -2750, 0.
303, 43000, -2350, 0.
304, 43000, -783.333333, 0.
305, 43000, 0., 0.
306, 43000, 783.333333, 0.
307, 43000, 2350, 0.
308, 43000, 2750, 0.
309, 44000, -2750, 0.
310, 44000, -2350, 0.
311, 44000, -783.333333, 0.
312, 44000, 0., 0.
313, 44000, 783.333333, 0.
314, 44000, 2350, 0.
315, 44000, 2750, 0.
316, 45000, -2750, 0.
317, 45000, -2350, 0.
318, 45000, -783.333333, 0.
319, 45000, 0., 0.
320, 45000, 783.333333, 0.
321, 45000, 2350, 0.
322, 45000, 2750, 0.
323, 46000, -2750, 0.
324, 46000, -2350, 0.
325, 46000, -783.333333, 0.
326, 46000, 0., 0.
327, 46000, 783.333333, 0.
328, 46000, 2350, 0.
329, 46000, 2750, 0.
330, 47000, -2750, 0.
331, 47000, -2350, 0.
332, 47000, -783.333333, 0.
333, 47000, 0., 0.
334, 47000, 783.333333, 0.
335, 47000, 2350, 0.
336, 47000, 2750, 0.
337, 48000, -2750, 0.
338, 48000, -2350, 0.
339, 48000, -783.333333, 0.
340, 48000, 0., 0.
341, 48000, 783.333333, 0.
342, 48000, 2350, 0.
343, 48000, 2750, 0.
344, 49000, -2750, 0.
345, 49000, -2350, 0.
346, 49000, -783.333333, 0.
347, 49000, 0., 0.
348, 49000, 783.333333, 0.
349, 49000, 2350, 0.
350, 49000, 2750, 0.
351, 50000, -2750, 0.
352, 50000, -2350, 0.
353, 50000, -783.333333, 0.
354, 50000, 0., 0.
355, 50000, 783.333333, 0.
356, 50000, 2350, 0.
357, 50000, 2750, 0.
358, 51000, -2750, 0.
359, 51000, -2350, 0.
360, 51000, -783.333333, 0.
361, 51000, 0., 0.
362, 51000, 783.333333, 0.
363, 51000, 2350, 0.
364, 51000, 2750, 0.
365, 52000, -2750, 0.
366, 52000, -2350, 0.
367, 52000, -783.333333, 0.
368, 52000, 0., 0.
369, 52000, 783.333333, 0.
370, 52000, 2350, 0.
371, 52000, 2750, 0.
372, 53000, -2750, 0.
373, 53000, -2350, 0.
374, 53000, -783.333333, 0.
375, 53000, 0., 0.
376, 53000, 783.333333, 0.
377, 53000, 2350, 0.
378, 53000, 2750, 0.
379, 54000, -2750, 0.
380, 54000, -2350, 0.
381, 54000, -783.333333, 0.
382, 54000, 0., 0.
383, 54000, 783.333333, 0.
384, 54000, 2350, 0.
385, 54000, 2750, 0.
386, 55000, -2750, 0.
387, 55000, -2350, 0.
388, 55000, -783.333333, 0.
389, 55000, 0., 0.
390, 55000, 783.333333, 0.
391, 55000, 2350, 0.
392, 55000, 2750, 0.
393, 56000, -2750, 0.
394, 56000, -2350, 0.
395, 56000, -783.333333, 0.
396, 56000, 0., 0.
397, 56000, 783.333333, 0.
398, 56000, 2350, 0.
399, 56000, 2750, 0.
400, 57000, -2750, 0.
401, 57000, -2350, 0.
402, 57000, -783.333333, 0.
403, 57000, 0., 0.
404, 57000, 783.333333, 0.
405, 57000, 2350, 0.
406, 57000, 2750, 0.
407, 58000, -2750, 0.
408, 58000, -2350, 0.
409, 58000, -783.333333, 0.
410, 58000, 0., 0.
411, 58000, 783.333333, 0.
412, 58000, 2350, 0.
413, 58000, 2750, 0.
414, 59000, -2750, 0.
415, 59000, -2350, 0.
416, 59000, -783.333333, 0.
417, 59000, 0., 0.
418, 59000, 783.333333, 0.
419, 59000, 2350, 0.
420, 59000, 2750, 0.
421, 60000, -2750, 0.
422, 60000, -2350, 0.
423, 60000, -783.333333, 0.
424, 60000, 0., 0.
425, 60000, 783.333333, 0.
426, 60000, 2350, 0.
427, 60000, 2750, 0.
428, 61000, -2750, 0.
429, 61000, -2350, 0.
430, 61000, -783.333333, 0.
431, 61000, 0., 0.
432, 61000, 783.333333, 0.
433, 61000, 2350, 0.
434, 61000, 2750, 0.
435, 62000, -2750, 0.
436, 62000, -2350, 0.
437, 62000, -783.333333, 0.
438, 62000, 0., 0.
439, 62000, 783.333333, 0.
440, 62000, 2350, 0.
441, 62000, 2750, 0.
442, 63000, -2750, 0.
443, 63000, -2350, 0.
444, 63000, -783.333333, 0.
445, 63000, 0., 0.
446, 63000, 783.333333, 0.
447, 63000, 2350, 0.
448, 63000, 2750, 0.
449, 64000, -2750, 0.
450, 64000, -2350, 0.
451, 64000, -783.333333, 0.
452, 64000, 0., 0.
453, 64000, 783.333333, 0.
454, 64000, 2350, 0.
455, 64000, 2750, 0.
456, 65000, -2750, 0.
457, 65000, -2350, 0.
458, 65000, -783.333333, 0.
459, 65000, 0., 0.
460, 65000, 783.333333, 0.
461, 65000, 2350, 0.
462, 65000, 2750, 0.
463, 66000, -2750, 0.
464, 66000, -2350, 0.
465, 66000, -783.333333, 0.
466, 66000, 0., 0.
467, 66000, 783.333333, 0.
468, 66000, 2350, 0.
469, 66000, 2750, 0.
470, 67000, -2750, 0.
471, 67000, -2350, 0.
472, 67000, -783.333333, 0.
473, 67000, 0., 0.
474, 67000, 783.333333, 0.
475, 67000, 2350, 0.
476, 67000, 2750, 0.
477, 68000, -2750, 0.
478, 68000, -2350, 0.
479, 68000, -783.333333, 0.
480, 68000, 0., 0.
481, 68000, 783.333333, 0.
482, 68000, 2350, 0.
483, 68000, 2750, 0.
484, 69000, -2750, 0.
485, 69000, -2350, 0.
486, 69000, -783.333333, 0.
487, 69000, 0., 0.
488, 69000, 783.333333, 0.
489, 69000, 2350, 0.
490, 69000, 2750, 0.
491, 70000, -2750, 0.
492, 70000, -2350, 0.
493, 70000, -783.333333, 0.
494, 70000, 0., 0.
495, 70000, 783.333333, 0.
496, 70000, 2350, 0.
497, 70000, 2750, 0.
498, 71000, -2750, 0.
499, 71000, -2350, 0.
500, 71000, -783.333333, 0.
501, 71000, 0., 0.
502, 71000, 783.333333, 0.
503, 71000, 2350, 0.
504, 71000, 2750, 0.
505, 72000, -2750, 0.
506, 72000, -2350, 0.
507, 72000, -783.333333, 0.
508, 72000, 0., 0.
509, 72000, 783.333333, 0.
510, 72000, 2350, 0.
511, 72000, 2750, 0.
512, 73000, -2750, 0.
513, 73000, -2350, 0.
514, 73000, -783.333333, 0.
515, 73000, 0., 0.
516, 73000, 783.333333, 0.
517, 73000, 2350, 0.
518, 73000, 2750, 0.
519, 74000, -2750, 0.
520, 74000, -2350, 0.
521, 74000, -783.333333, 0.
522, 74000, 0., 0.
523, 74000, 783.333333, 0.
524, 74000, 2350, 0.
525, 74000, 2750, 0.
526, 75000, -2750, 0.
527, 75000, -2350, 0.
528, 75000, -783.333333, 0.
529, 75000, 0., 0.
530, 75000, 783.333333, 0.
531, 75000, 2350, 0.
532, 75000, 2750, 0.
533, 76000, -2750, 0.
534, 76000, -2350, 0.
535, 76000, -783.333333, 0.
536, 76000, 0., 0.
537, 76000, 783.333333, 0.
538, 76000, 2350, 0.
539, 76000, 2750, 0.
540, 77000, -2750, 0.
541, 77000, -2350, 0.
542, 77000, -783.333333, 0.
543, 77000, 0., 0.
544, 77000, 783.333333, 0.
545, 77000, 2350, 0.
546, 77000, 2750, 0.
547, 78000, -2750, 0.
548, 78000, -2350, 0.
549, 78000, -783.333333, 0.
550, 78000, 0., 0.
551, 78000, 783.333333, 0.
552, 78000, 2350, 0.
553, 78000, 2750, 0.
554, 79000, -2750, 0.
555, 79000, -2350, 0.
556, 79000, -783.333333, 0.
557, 79000, 0., 0.
558, 79000, 783.333333, 0.
559, 79000, 2350, 0.
560, 79000, 2750, 0.
561, 80000, -2750, 0.
562, 80000, -2350, 0.
563, 80000, -783.333333, 0.
564, 80000, 0., 0.
565, 80000, 783.333333, 0.
566, 80000, 2350, 0.
567, 80000, 2750, 0.
568, 81000, -2750, 0.
569, 81000, -2350, 0.
570, 81000, -783.333333, 0.
571, 81000, 0., 0.
572, 81000, 783.333333, 0.
573, 81000, 2350, 0.
574, 81000, 2750, 0.
575, 82000, -2750, 0.
576, 82000, -2350, 0.
577, 82000, -783.333333, 0.
578, 82000, 0., 0.
579, 82000, 783.333333, 0.
580, 82000, 2350, 0.
581, 82000, 2750, 0.
582, 0., -2750, -2500
583, 0., -2750, 9150
584, 0., 2750, -2500
585, 0., 2750, 9150
586, 82000, -2750, -2500
587, 82000, -2750, 9150
588, 82000, 2750, -2500
589, 82000, 2750, 9150
590, -24237.3027, 2350, 1010
591, -21207.6399, 2400, 2027.5
592, -18177.977, 2450, 3045
593, -15148.3142, 2500, 4062.5
594, -12118.6514, 2550, 5080
595, -9088.98852, 2600, 6097.5
596, -6059.32568, 2650, 7115
597, -3029.66284, 2700, 8132.5
598, 1000, 2750, 8754.87805
599, 2000, 2750, 8369.5122
600, 3000, 2750, 7993.90244
601, 4000, 2750, 7628.04878
602, 5000, 2750, 7271.95122
603, 6000, 2750, 6925.60976
604, 7000, 2750, 6589.02439
605, 8000, 2750, 6262.19512
606, 9000, 2750, 5945.12195
607, 10000, 2750, 5637.80488
608, 11000, 2750, 5340.2439
609, 12000, 2750, 5052.43902
610, 13000, 2750, 4774.39024
611, 14000, 2750, 4506.09756
612, 15000, 2750, 4247.56098
613, 16000, 2750, 3998.78049
614, 17000, 2750, 3759.7561
615, 18000, 2750, 3530.4878
616, 19000, 2750, 3310.97561
617, 20000, 2750, 3101.21951
618, 21000, 2750, 2901.21951
619, 22000, 2750, 2710.97561
620, 23000, 2750, 2530.4878
621, 24000, 2750, 2359.7561
622, 25000, 2750, 2198.78049
623, 26000, 2750, 2047.56098
624, 27000, 2750, 1906.09756
625, 28000, 2750, 1774.39024
626, 29000, 2750, 1652.43902
627, 30000, 2750, 1540.2439
628, 31000, 2750, 1437.80488
629, 32000, 2750, 1345.12195
630, 33000, 2750, 1262.19512
631, 34000, 2750, 1189.02439
632, 35000, 2750, 1125.60976
633, 36000, 2750, 1071.95122
634, 37000, 2750, 1028.04878
635, 38000, 2750, 993.902439
636, 39000, 2750, 969.512195
637, 40000, 2750, 954.878049
638, 41000, 2750, 950
639, 42000, 2750, 954.878049
640, 43000, 2750, 969.512195
641, 44000, 2750, 993.902439
642, 45000, 2750, 1028.04878
643, 46000, 2750, 1071.95122
644, 47000, 2750, 1125.60976
645, 48000, 2750, 1189.02439
646, 49000, 2750, 1262.19512
647, 50000, 2750, 1345.12195
648, 51000, 2750, 1437.80488
649, 52000, 2750, 1540.2439
650, 53000, 2750, 1652.43902
651, 54000, 2750, 1774.39024
652, 55000, 2750, 1906.09756
653, 56000, 2750, 2047.56098
654, 57000, 2750, 2198.78049
655, 58000, 2750, 2359.7561
656, 59000, 2750, 2530.4878
657, 60000, 2750, 2710.97561
658, 61000, 2750, 2901.21951
659, 62000, 2750, 3101.21951
660, 63000, 2750, 3310.97561
661, 64000, 2750, 3530.4878
662, 65000, 2750, 3759.7561
663, 66000, 2750, 3998.78049
664, 67000, 2750, 4247.56098
665, 68000, 2750, 4506.09756
666, 69000, 2750, 4774.39024
667, 70000, 2750, 5052.43902
668, 71000, 2750, 5340.2439
669, 72000, 2750, 5637.80488
670, 73000, 2750, 5945.12195
671, 74000, 2750, 6262.19512
672, 75000, 2750, 6589.02439
673, 76000, 2750, 6925.60976
674, 77000, 2750, 7271.95122
675, 78000, 2750, 7628.04878
676, 79000, 2750, 7993.90244
677, 80000, 2750, 8369.5122
678, 81000, 2750, 8754.87805
679, 85029.6628, 2700, 8132.5
680, 88059.3257, 2650, 7115
681, 91088.9885, 2600, 6097.5
682, 94118.6514, 2550, 5080
683, 97148.3142, 2500, 4062.5
684, 100177.977, 2450, 3045
685, 103207.64, 2400, 2027.5
686, 106237.303, 2350, 1010
687, -24237.3027, -2350, 1010
688, -21207.6399, -2400, 2027.5
689, -18177.977, -2450, 3045
690, -15148.3142, -2500, 4062.5
691, -12118.6514, -2550, 5080
692, -9088.98852, -2600, 6097.5
693, -6059.32568, -2650, 7115
694, -3029.66284, -2700, 8132.5
695, 1000, -2750, 8754.87805
696, 2000, -2750, 8369.5122
697, 3000, -2750, 7993.90244
698, 4000, -2750, 7628.04878
699, 5000, -2750, 7271.95122
700, 6000, -2750, 6925.60976
701, 7000, -2750, 6589.02439
702, 8000, -2750, 6262.19512
703, 9000, -2750, 5945.12195
704, 10000, -2750, 5637.80488
705, 11000, -2750, 5340.2439
706, 12000, -2750, 5052.43902
707, 13000, -2750, 4774.39024
708, 14000, -2750, 4506.09756
709, 15000, -2750, 4247.56098
710, 16000, -2750, 3998.78049
711, 17000, -2750, 3759.7561
712, 18000, -2750, 3530.4878
713, 19000, -2750, 3310.97561
714, 20000, -2750, 3101.21951
715, 21000, -2750, 2901.21951
716, 22000, -2750, 2710.97561
717, 23000, -2750, 2530.4878
718, 24000, -2750, 2359.7561
719, 25000, -2750, 2198.78049
720, 26000, -2750, 2047.56098
721, 27000, -2750, 1906.09756
722, 28000, -2750, 1774.39024
723, 29000, -2750, 1652.43902
724, 30000, -2750, 1540.2439
725, 31000, -2750, 1437.80488
726, 32000, -2750, 1345.12195
727, 33000, -2750, 1262.19512
728, 34000, -2750, 1189.02439
729, 35000, -2750, 1125.60976
730, 36000, -2750, 1071.95122
731, 37000, -2750, 1028.04878
732, 38000, -2750, 993.902439
733, 39000, -2750, 969.512195
734, 40000, -2750, 954.878049
735, 41000, -2750, 950
736, 42000, -2750, 954.878049
737, 43000, -2750, 969.512195
738, 44000, -2750, 993.902439
739, 45000, -2750, 1028.04878
740, 46000, -2750, 1071.95122
741, 47000, -2750, 1125.60976
742, 48000, -2750, 1189.02439
743, 49000, -2750, 1262.19512
744, 50000, -2750, 1345.12195
745, 51000, -2750, 1437.80488
746, 52000, -2750, 1540.2439
747, 53000, -2750, 1652.43902
748, 54000, -2750, 1774.39024
749, 55000, -2750, 1906.09756
750, 56000, -2750, 2047.56098
751, 57000, -2750, 2198.78049
752, 58000, -2750, 2359.7561
753, 59000, -2750, 2530.4878
754, 60000, -2750, 2710.97561
755, 61000, -2750, 2901.21951
756, 62000, -2750, 3101.21951
757, 63000, -2750, 3310.97561
758, 64000, -2750, 3530.4878
759, 65000, -2750, 3759.7561
760, 66000, -2750, 3998.78049
761, 67000, -2750, 4247.56098
762, 68000, -2750, 4506.09756
763, 69000, -2750, 4774.39024
764, 70000, -2750, 5052.43902
765, 71000, -2750, 5340.2439
766, 72000, -2750, 5637.80488
767, 73000, -2750, 5945.12195
768, 74000, -2750, 6262.19512
769, 75000, -2750, 6589.02439
770, 76000, -2750, 6925.60976
771, 77000, -2750, 7271.95122
772, 78000, -2750, 7628.04878
773, 79000, -2750, 7993.90244
774, 80000, -2750, 8369.5122
775, 81000, -2750, 8754.87805
776, 85029.6628, -2700, 8132.5
777, 88059.3257, -2650, 7115
778, 91088.9885, -2600, 6097.5
779, 94118.6514, -2550, 5080
780, 97148.3142, -2500, 4062.5
781, 100177.977, -2450, 3045
782, 103207.64, -2400, 2027.5
783, 106237.303, -2350, 1010
784, 26000, 2750, -420
785, 8000, 15250, -3534
786, 26000, -2750, -420
787, 8000, -15250, -3534
788, 56000, 2750, -420
789, 74000, 15250, -3534
790, 56000, -2750, -420
791, 74000, -15250, -3534
*ELEMENT, TYPE=S4, ELSET=DECK_SHELLS
1, 1, 8, 9, 2
2, 2, 9, 10, 3
3, 3, 10, 11, 4
4, 4, 11, 12, 5
5, 5, 12, 13, 6
6, 6, 13, 14, 7
7, 8, 15, 16, 9
8, 9, 16, 17, 10
9, 10, 17, 18, 11
10, 11, 18, 19, 12
11, 12, 19, 20, 13
12, 13, 20, 21, 14
13, 15, 22, 23, 16
14, 16, 23, 24, 17
15, 17, 24, 25, 18
16, 18, 25, 26, 19
17, 19, 26, 27, 20
18, 20, 27, 28, 21
19, 22, 29, 30, 23
20, 23, 30, 31, 24
21, 24, 31, 32, 25
22, 25, 32, 33, 26
23, 26, 33, 34, 27
24, 27, 34, 35, 28
25, 29, 36, 37, 30
26, 30, 37, 38, 31
27, 31, 38, 39, 32
28, 32, 39, 40, 33
29, 33, 40, 41, 34
30, 34, 41, 42, 35
31, 36, 43, 44, 37
32, 37, 44, 45, 38
33, 38, 45, 46, 39
34, 39, 46, 47, 40
35, 40, 47, 48, 41
36, 41, 48, 49, 42
37, 43, 50, 51, 44
38, 44, 51, 52, 45
39, 45, 52, 53, 46
40, 46, 53, 54, 47
41, 47, 54, 55, 48
42, 48, 55, 56, 49
43, 50, 57, 58, 51
44, 51, 58, 59, 52
45, 52, 59, 60, 53
46, 53, 60, 61, 54
47, 54, 61, 62, 55
48, 55, 62, 63, 56
49, 57, 64, 65, 58
50, 58, 65, 66, 59
51, 59, 66, 67, 60
52, 60, 67, 68, 61
53, 61, 68, 69, 62
54, 62, 69, 70, 63
55, 64, 71, 72, 65
56, 65, 72, 73, 66
57, 66, 73, 74, 67
58, 67, 74, 75, 68
59, 68, 75, 76, 69
60, 69, 76, 77, 70
61, 71, 78, 79, 72
62, 72, 79, 80, 73
63, 73, 80, 81, 74
64, 74, 81, 82, 75
65, 75, 82, 83, 76
66, 76, 83, 84, 77
67, 78, 85, 86, 79
68, 79, 86, 87, 80
69, 80, 87, 88, 81
70, 81, 88, 89, 82
71, 82, 89, 90, 83
72, 83, 90, 91, 84
73, 85, 92, 93, 86
74, 86, 93, 94, 87
75, 87, 94, 95, 88
76, 88, 95, 96, 89
77, 89, 96, 97, 90
78, 90, 97, 98, 91
79, 92, 99, 100, 93
80, 93, 100, 101, 94
81, 94, 101, 102, 95
82, 95, 102, 103, 96
83, 96, 103, 104, 97
84, 97, 104, 105, 98
85, 99, 106, 107, 100
86, 100, 107, 108, 101
87, 101, 108, 109, 102
88, 102, 109, 110, 103
89, 103, 110, 111, 104
90, 104, 111, 112, 105
91, 106, 113, 114, 107
92, 107, 114, 115, 108
93, 108, 115, 116, 109
94, 109, 116, 117, 110
95, 110, 117, 118, 111
96, 111, 118, 119, 112
97, 113, 120, 121, 114
98, 114, 121, 122, 115
99, 115, 122, 123, 116
100, 116, 123, 124, 117
101, 117, 124, 125, 118
102, 118, 125, 126, 119
103, 120, 127, 128, 121
104, 121, 128, 129, 122
105, 122, 129, 130, 123
106, 123, 130, 131, 124
107, 124, 131, 132, 125
108, 125, 132, 133, 126
109, 127, 134, 135, 128
110, 128, 135, 136, 129
111, 129, 136, 137, 130
112, 130, 137, 138, 131
113, 131, 138, 139, 132
114, 132, 139, 140, 133
115, 134, 141, 142, 135
116, 135, 142, 143, 136
117, 136, 143, 144, 137
118, 137, 144, 145, 138
119, 138, 145, 146, 139
120, 139, 146, 147, 140
121, 141, 148, 149, 142
122, 142, 149, 150, 143
123, 143, 150, 151, 144
124, 144, 151, 152, 145
125, 145, 152, 153, 146
126, 146, 153, 154, 147
127, 148, 155, 156, 149
128, 149, 156, 157, 150
129, 150, 157, 158, 151
130, 151, 158, 159, 152
131, 152, 159, 160, 153
132, 153, 160, 161, 154
133, 155, 162, 163, 156
134, 156, 163, 164, 157
135, 157, 164, 165, 158
136, 158, 165, 166, 159
137, 159, 166, 167, 160
138, 160, 167, 168, 161
139, 162, 169, 170, 163
140, 163, 170, 171, 164
141, 164, 171, 172, 165
142, 165, 172, 173, 166
143, 166, 173, 174, 167
144, 167, 174, 175, 168
145, 169, 176, 177, 170
146, 170, 177, 178, 171
147, 171, 178, 179, 172
148, 172, 179, 180, 173
149, 173, 180, 181, 174
150, 174, 181, 182, 175
151, 176, 183, 184, 177
152, 177, 184, 185, 178
153, 178, 185, 186, 179
154, 179, 186, 187, 180
155, 180, 187, 188, 181
156, 181, 188, 189, 182
157, 183, 190, 191, 184
158, 184, 191, 192, 185
159, 185, 192, 193, 186
160, 186, 193, 194, 187
161, 187, 194, 195, 188
162, 188, 195, 196, 189
163, 190, 197, 198, 191
164, 191, 198, 199, 192
165, 192, 199, 200, 193
166, 193, 200, 201, 194
167, 194, 201, 202, 195
168, 195, 202, 203, 196
169, 197, 204, 205, 198
170, 198, 205, 206, 199
171, 199, 206, 207, 200
172, 200, 207, 208, 201
173, 201, 208, 209, 202
174, 202, 209, 210, 203
175, 204, 211, 212, 205
176, 205, 212, 213, 206
177, 206, 213, 214, 207
178, 207, 214, 215, 208
179, 208, 215, 216, 209
180, 209, 216, 217, 210
181, 211, 218, 219, 212
182, 212, 219, 220, 213
183, 213, 220, 221, 214
184, 214, 221, 222, 215
185, 215, 222, 223, 216
186, 216, 223, 224, 217
187, 218, 225, 226, 219
188, 219, 226, 227, 220
189, 220, 227, 228, 221
190, 221, 228, 229, 222
191, 222, 229, 230, 223
192, 223, 230, 231, 224
193, 225, 232, 233, 226
194, 226, 233, 234, 227
195, 227, 234, 235, 228
196, 228, 235, 236, 229
197, 229, 236, 237, 230
198, 230, 237, 238, 231
199, 232, 239, 240, 233
200, 233, 240, 241, 234
201, 234, 241, 242, 235
202, 235, 242, 243, 236
203, 236, 243, 244, 237
204, 237, 244, 245, 238
205, 239, 246, 247, 240
206, 240, 247, 248, 241
207, 241, 248, 249, 242
208, 242, 249, 250, 243
209, 243, 250, 251, 244
210, 244, 251, 252, 245
211, 246, 253, 254, 247
212, 247, 254, 255, 248
213, 248, 255, 256, 249
214, 249, 256, 257, 250
215, 250, 257, 258, 251
216, 251, 258, 259, 252
217, 253, 260, 261, 254
218, 254, 261, 262, 255
219, 255, 262, 263, 256
220, 256, 263, 264, 257
221, 257, 264, 265, 258
222, 258, 265, 266, 259
223, 260, 267, 268, 261
224, 261, 268, 269, 262
225, 262, 269, 270, 263
226, 263, 270, 271, 264
227, 264, 271, 272, 265
228, 265, 272, 273, 266
229, 267, 274, 275, 268
230, 268, 275, 276, 269
231, 269, 276, 277, 270
232, 270, 277, 278, 271
233, 271, 278, 279, 272
234, 272, 279, 280, 273
235, 274, 281, 282, 275
236, 275, 282, 283, 276
237, 276, 283, 284, 277
238, 277, 284, 285, 278
239, 278, 285, 286, 279
240, 279, 286, 287, 280
241, 281, 288, 289, 282
242, 282, 289, 290, 283
243, 283, 290, 291, 284
244, 284, 291, 292, 285
245, 285, 292, 293, 286
246, 286, 293, 294, 287
247, 288, 295, 296, 289
248, 289, 296, 297, 290
249, 290, 297, 298, 291
250, 291, 298, 299, 292
251, 292, 299, 300, 293
252, 293, 300, 301, 294
253, 295, 302, 303, 296
254, 296, 303, 304, 297
255, 297, 304, 305, 298
256, 298, 305, 306, 299
257, 299, 306, 307, 300
258, 300, 307, 308, 301
259, 302, 309, 310, 303
260, 303, 310, 311, 304
261, 304, 311, 312, 305
262, 305, 312, 313, 306
263, 306, 313, 314, 307
264, 307, 314, 315, 308
265, 309, 316, 317, 310
266, 310, 317, 318, 311
267, 311, 318, 319, 312
268, 312, 319, 320, 313
269, 313, 320, 321, 314
270, 314, 321, 322, 315
271, 316, 323, 324, 317
272, 317, 324, 325, 318
273, 318, 325, 326, 319
274, 319, 326, 327, 320
275, 320, 327, 328, 321
276, 321, 328, 329, 322
277, 323, 330, 331, 324
278, 324, 331, 332, 325
279, 325, 332, 333, 326
280, 326, 333, 334, 327
281, 327, 334, 335, 328
282, 328, 335, 336, 329
283, 330, 337, 338, 331
284, 331, 338, 339, 332
285, 332, 339, 340, 333
286, 333, 340, 341, 334
287, 334, 341, 342, 335
288, 335, 342, 343, 336
289, 337, 344, 345, 338
290, 338, 345, 346, 339
291, 339, 346, 347, 340
292, 340, 347, 348, 341
293, 341, 348, 349, 342
294, 342, 349, 350, 343
295, 344, 351, 352, 345
296, 345, 352, 353, 346
297, 346, 353, 354, 347
298, 347, 354, 355, 348
299, 348, 355, 356, 349
300, 349, 356, 357, 350
301, 351, 358, 359, 352
302, 352, 359, 360, 353
303, 353, 360, 361, 354
304, 354, 361, 362, 355
305, 355, 362, 363, 356
306, 356, 363, 364, 357
307, 358, 365, 366, 359
308, 359, 366, 367, 360
309, 360, 367, 368, 361
310, 361, 368, 369, 362
311, 362, 369, 370, 363
312, 363, 370, 371, 364
313, 365, 372, 373, 366
314, 366, 373, 374, 367
315, 367, 374, 375, 368
316, 368, 375, 376, 369
317, 369, 376, 377, 370
318, 370, 377, 378, 371
319, 372, 379, 380, 373
320, 373, 380, 381, 374
321, 374, 381, 382, 375
322, 375, 382, 383, 376
323, 376, 383, 384, 377
324, 377, 384, 385, 378
325, 379, 386, 387, 380
326, 380, 387, 388, 381
327, 381, 388, 389, 382
328, 382, 389, 390, 383
329, 383, 390, 391, 384
330, 384, 391, 392, 385
331, 386, 393, 394, 387
332, 387, 394, 395, 388
333, 388, 395, 396, 389
334, 389, 396, 397, 390
335, 390, 397, 398, 391
336, 391, 398, 399, 392
337, 393, 400, 401, 394
338, 394, 401, 402, 395
339, 395, 402, 403, 396
340, 396, 403, 404, 397
341, 397, 404, 405, 398
342, 398, 405, 406, 399
343, 400, 407, 408, 401
344, 401, 408, 409, 402
345, 402, 409, 410, 403
346, 403, 410, 411, 404
347, 404, 411, 412, 405
348, 405, 412, 413, 406
349, 407, 414, 415, 408
350, 408, 415, 416, 409
351, 409, 416, 417, 410
352, 410, 417, 418, 411
353, 411, 418, 419, 412
354, 412, 419, 420, 413
355, 414, 421, 422, 415
356, 415, 422, 423, 416
357, 416, 423, 424, 417
358, 417, 424, 425, 418
359, 418, 425, 426, 419
360, 419, 426, 427, 420
361, 421, 428, 429, 422
362, 422, 429, 430, 423
363, 423, 430, 431, 424
364, 424, 431, 432, 425
365, 425, 432, 433, 426
366, 426, 433, 434, 427
367, 428, 435, 436, 429
368, 429, 436, 437, 430
369, 430, 437, 438, 431
370, 431, 438, 439, 432
371, 432, 439, 440, 433
372, 433, 440, 441, 434
373, 435, 442, 443, 436
374, 436, 443, 444, 437
375, 437, 444, 445, 438
376, 438, 445, 446, 439
377, 439, 446, 447, 440
378, 440, 447, 448, 441
379, 442, 449, 450, 443
380, 443, 450, 451, 444
381, 444, 451, 452, 445
382, 445, 452, 453, 446
383, 446, 453, 454, 447
384, 447, 454, 455, 448
385, 449, 456, 457, 450
386, 450, 457, 458, 451
387, 451, 458, 459, 452
388, 452, 459, 460, 453
389, 453, 460, 461, 454
390, 454, 461, 462, 455
391, 456, 463, 464, 457
392, 457, 464, 465, 458
393, 458, 465, 466, 459
394, 459, 466, 467, 460
395, 460, 467, 468, 461
396, 461, 468, 469, 462
397, 463, 470, 471, 464
398, 464, 471, 472, 465
399, 465, 472, 473, 466
400, 466, 473, 474, 467
401, 467, 474, 475, 468
402, 468, 475, 476, 469
403, 470, 477, 478, 471
404, 471, 478, 479, 472
405, 472, 479, 480, 473
406, 473, 480, 481, 474
407, 474, 481, 482, 475
408, 475, 482, 483, 476
409, 477, 484, 485, 478
410, 478, 485, 486, 479
411, 479, 486, 487, 480
412, 480, 487, 488, 481
413, 481, 488, 489, 482
414, 482, 489, 490, 483
415, 484, 491, 492, 485
416, 485, 492, 493, 486
417, 486, 493, 494, 487
418, 487, 494, 495, 488
419, 488, 495, 496, 489
420, 489, 496, 497, 490
421, 491, 498, 499, 492
422, 492, 499, 500, 493
423, 493, 500, 501, 494
424, 494, 501, 502, 495
425, 495, 502, 503, 496
426, 496, 503, 504, 497
427, 498, 505, 506, 499
428, 499, 506, 507, 500
429, 500, 507, 508, 501
430, 501, 508, 509, 502
431, 502, 509, 510, 503
432, 503, 510, 511, 504
433, 505, 512, 513, 506
434, 506, 513, 514, 507
435, 507, 514, 515, 508
436, 508, 515, 516, 509
437, 509, 516, 517, 510
438, 510, 517, 518, 511
439, 512, 519, 520, 513
440, 513, 520, 521, 514
441, 514, 521, 522, 515
442, 515, 522, 523, 516
443, 516, 523, 524, 517
444, 517, 524, 525, 518
445, 519, 526, 527, 520
446, 520, 527, 528, 521
447, 521, 528, 529, 522
448, 522, 529, 530, 523
449, 523, 530, 531, 524
450, 524, 531, 532, 525
451, 526, 533, 534, 527
452, 527, 534, 535, 528
453, 528, 535, 536, 529
454, 529, 536, 537, 530
455, 530, 537, 538, 531
456, 531, 538, 539, 532
457, 533, 540, 541, 534
458, 534, 541, 542, 535
459, 535, 542, 543, 536
460, 536, 543, 544, 537
461, 537, 544, 545, 538
462, 538, 545, 546, 539
463, 540, 547, 548, 541
464, 541, 548, 549, 542
465, 542, 549, 550, 543
466, 543, 550, 551, 544
467, 544, 551, 552, 545
468, 545, 552, 553, 546
469, 547, 554, 555, 548
470, 548, 555, 556, 549
471, 549, 556, 557, 550
472, 550, 557, 558, 551
473, 551, 558, 559, 552
474, 552, 559, 560, 553
475, 554, 561, 562, 555
476, 555, 562, 563, 556
477, 556, 563, 564, 557
478, 557, 564, 565, 558
479, 558, 565, 566, 559
480, 559, 566, 567, 560
481, 561, 568, 569, 562
482, 562, 569, 570, 563
483, 563, 570, 571, 564
484, 564, 571, 572, 565
485, 565, 572, 573, 566
486, 566, 573, 574, 567
487, 568, 575, 576, 569
488, 569, 576, 577, 570
489, 570, 577, 578, 571
490, 571, 578, 579, 572
491, 572, 579, 580, 573
492, 573, 580, 581, 574
*ELEMENT, TYPE=B31, ELSET=CROSSBEAMS
493, 1, 2
494, 2, 3
495, 3, 4
496, 4, 5
497, 5, 6
498, 6, 7
499, 36, 37
500, 37, 38
501, 38, 39
502, 39, 40
503, 40, 41
504, 41, 42
505, 57, 58
506, 58, 59
507, 59, 60
508, 60, 61
509, 61, 62
510, 62, 63
511, 78, 79
512, 79, 80
513, 80, 81
514, 81, 82
515, 82, 83
516, 83, 84
517, 99, 100
518, 100, 101
519, 101, 102
520, 102, 103
521, 103, 104
522, 104, 105
523, 120, 121
524, 121, 122
525, 122, 123
526, 123, 124
527, 124, 125
528, 125, 126
529, 141, 142
530, 142, 143
531, 143, 144
532, 144, 145
533, 145, 146
534, 146, 147
535, 162, 163
536, 163, 164
537, 164, 165
538, 165, 166
539, 166, 167
540, 167, 168
541, 183, 184
542, 184, 185
543, 185, 186
544, 186, 187
545, 187, 188
546, 188, 189
547, 204, 205
548, 205, 206
549, 206, 207
550, 207, 208
551, 208, 209
552, 209, 210
553, 225, 226
554, 226, 227
555, 227, 228
556, 228, 229
557, 229, 230
558, 230, 231
559, 246, 247
560, 247, 248
561, 248, 249
562, 249, 250
563, 250, 251
564, 251, 252
565, 267, 268
566, 268, 269
567, 269, 270
568, 270, 271
569, 271, 272
570, 272, 273
571, 288, 289
572, 289, 290
573, 290, 291
574, 291, 292
575, 292, 293
576, 293, 294
577, 309, 310
578, 310, 311
579, 311, 312
580, 312, 313
581, 313, 314
582, 314, 315
583, 330, 331
584, 331, 332
585, 332, 333
586, 333, 334
587, 334, 335
588, 335, 336
589, 351, 352
590, 352, 353
591, 353, 354
592, 354, 355
593, 355, 356
594, 356, 357
595, 372, 373
596, 373, 374
597, 374, 375
598, 375, 376
599, 376, 377
600, 377, 378
601, 393, 394
602, 394, 395
603, 395, 396
604, 396, 397
605, 397, 398
606, 398, 399
607, 414, 415
608, 415, 416
609, 416, 417
610, 417, 418
611, 418, 419
612, 419, 420
613, 435, 436
614, 436, 437
615, 437, 438
616, 438, 439
617, 439, 440
618, 440, 441
619, 456, 457
620, 457, 458
621, 458, 459
622, 459, 460
623, 460, 461
624, 461, 462
625, 477, 478
626, 478, 479
627, 479, 480
628, 480, 481
629, 481, 482
630, 482, 483
631, 498, 499
632, 499, 500
633, 500, 501
634, 501, 502
635, 502, 503
636, 503, 504
637, 519, 520
638, 520, 521
639, 521, 522
640, 522, 523
641, 523, 524
642, 524, 525
643, 540, 541
644, 541, 542
645, 542, 543
646, 543, 544
647, 544, 545
648, 545, 546
649, 575, 576
650, 576, 577
651, 577, 578
652, 578, 579
653, 579, 580
654, 580, 581
*ELEMENT, TYPE=B31, ELSET=LONG_GIRDERS
655, 2, 9
656, 9, 16
657, 16, 23
658, 23, 30
659, 30, 37
660, 37, 44
661, 44, 51
662, 51, 58
663, 58, 65
664, 65, 72
665, 72, 79
666, 79, 86
667, 86, 93
668, 93, 100
669, 100, 107
670, 107, 114
671, 114, 121
672, 121, 128
673, 128, 135
674, 135, 142
675, 142, 149
676, 149, 156
677, 156, 163
678, 163, 170
679, 170, 177
680, 177, 184
681, 184, 191
682, 191, 198
683, 198, 205
684, 205, 212
685, 212, 219
686, 219, 226
687, 226, 233
688, 233, 240
689, 240, 247
690, 247, 254
691, 254, 261
692, 261, 268
693, 268, 275
694, 275, 282
695, 282, 289
696, 289, 296
697, 296, 303
698, 303, 310
699, 310, 317
700, 317, 324
701, 324, 331
702, 331, 338
703, 338, 345
704, 345, 352
705, 352, 359
706, 359, 366
707, 366, 373
708, 373, 380
709, 380, 387
710, 387, 394
711, 394, 401
712, 401, 408
713, 408, 415
714, 415, 422
715, 422, 429
716, 429, 436
717, 436, 443
718, 443, 450
719, 450, 457
720, 457, 464
721, 464, 471
722, 471, 478
723, 478, 485
724, 485, 492
725, 492, 499
726, 499, 506
727, 506, 513
728, 513, 520
729, 520, 527
730, 527, 534
731, 534, 541
732, 541, 548
733, 548, 555
734, 555, 562
735, 562, 569
736, 569, 576
737, 6, 13
738, 13, 20
739, 20, 27
740, 27, 34
741, 34, 41
742, 41, 48
743, 48, 55
744, 55, 62
745, 62, 69
746, 69, 76
747, 76, 83
748, 83, 90
749, 90, 97
750, 97, 104
751, 104, 111
752, 111, 118
753, 118, 125
754, 125, 132
755, 132, 139
756, 139, 146
757, 146, 153
758, 153, 160
759, 160, 167
760, 167, 174
761, 174, 181
762, 181, 188
763, 188, 195
764, 195, 202
765, 202, 209
766, 209, 216
767, 216, 223
768, 223, 230
769, 230, 237
770, 237, 244
771, 244, 251
772, 251, 258
773, 258, 265
774, 265, 272
775, 272, 279
776, 279, 286
777, 286, 293
778, 293, 300
779, 300, 307
780, 307, 314
781, 314, 321
782, 321, 328
783, 328, 335
784, 335, 342
785, 342, 349
786, 349, 356
787, 356, 363
788, 363, 370
789, 370, 377
790, 377, 384
791, 384, 391
792, 391, 398
793, 398, 405
794, 405, 412
795, 412, 419
796, 419, 426
797, 426, 433
798, 433, 440
799, 440, 447
800, 447, 454
801, 454, 461
802, 461, 468
803, 468, 475
804, 475, 482
805, 482, 489
806, 489, 496
807, 496, 503
808, 503, 510
809, 510, 517
810, 517, 524
811, 524, 531
812, 531, 538
813, 538, 545
814, 545, 552
815, 552, 559
816, 559, 566
817, 566, 573
818, 573, 580
*ELEMENT, TYPE=B31, ELSET=TOWER_COLUMNS
819, 582, 583
820, 584, 585
822, 586, 587
823, 588, 589
*ELEMENT, TYPE=B31, ELSET=TOWER_TOP_BEAMS
821, 583, 585
824, 587, 589
*ELEMENT, TYPE=B31, ELSET=MAIN_CABLES
825, 590, 591
826, 591, 592
827, 592, 593
828, 593, 594
829, 594, 595
830, 595, 596
831, 596, 597
832, 597, 585
833, 585, 598
834, 598, 599
835, 599, 600
836, 600, 601
837, 601, 602
838, 602, 603
839, 603, 604
840, 604, 605
841, 605, 606
842, 606, 607
843, 607, 608
844, 608, 609
845, 609, 610
846, 610, 611
847, 611, 612
848, 612, 613
849, 613, 614
850, 614, 615
851, 615, 616
852, 616, 617
853, 617, 618
854, 618, 619
855, 619, 620
856, 620, 621
857, 621, 622
858, 622, 623
859, 623, 624
860, 624, 625
861, 625, 626
862, 626, 627
863, 627, 628
864, 628, 629
865, 629, 630
866, 630, 631
867, 631, 632
868, 632, 633
869, 633, 634
870, 634, 635
871, 635, 636
872, 636, 637
873, 637, 638
874, 638, 639
875, 639, 640
876, 640, 641
877, 641, 642
878, 642, 643
879, 643, 644
880, 644, 645
881, 645, 646
882, 646, 647
883, 647, 648
884, 648, 649
885, 649, 650
886, 650, 651
887, 651, 652
888, 652, 653
889, 653, 654
890, 654, 655
891, 655, 656
892, 656, 657
893, 657, 658
894, 658, 659
895, 659, 660
896, 660, 661
897, 661, 662
898, 662, 663
899, 663, 664
900, 664, 665
901, 665, 666
902, 666, 667
903, 667, 668
904, 668, 669
905, 669, 670
906, 670, 671
907, 671, 672
908, 672, 673
909, 673, 674
910, 674, 675
911, 675, 676
912, 676, 677
913, 677, 678
914, 678, 589
915, 589, 679
916, 679, 680
917, 680, 681
918, 681, 682
919, 682, 683
920, 683, 684
921, 684, 685
922, 685, 686
923, 687, 688
924, 688, 689
925, 689, 690
926, 690, 691
927, 691, 692
928, 692, 693
929, 693, 694
930, 694, 583
931, 583, 695
932, 695, 696
933, 696, 697
934, 697, 698
935, 698, 699
936, 699, 700
937, 700, 701
938, 701, 702
939, 702, 703
940, 703, 704
941, 704, 705
942, 705, 706
943, 706, 707
944, 707, 708
945, 708, 709
946, 709, 710
947, 710, 711
948, 711, 712
949, 712, 713
950, 713, 714
951, 714, 715
952, 715, 716
953, 716, 717
954, 717, 718
955, 718, 719
956, 719, 720
957, 720, 721
958, 721, 722
959, 722, 723
960, 723, 724
961, 724, 725
962, 725, 726
963, 726, 727
964, 727, 728
965, 728, 729
966, 729, 730
967, 730, 731
968, 731, 732
969, 732, 733
970, 733, 734
971, 734, 735
972, 735, 736
973, 736, 737
974, 737, 738
975, 738, 739
976, 739, 740
977, 740, 741
978, 741, 742
979, 742, 743
980, 743, 744
981, 744, 745
982, 745, 746
983, 746, 747
984, 747, 748
985, 748, 749
986, 749, 750
987, 750, 751
988, 751, 752
989, 752, 753
990, 753, 754
991, 754, 755
992, 755, 756
993, 756, 757
994, 757, 758
995, 758, 759
996, 759, 760
997, 760, 761
998, 761, 762
999, 762, 763
1000, 763, 764
1001, 764, 765
1002, 765, 766
1003, 766, 767
1004, 767, 768
1005, 768, 769
1006, 769, 770
1007, 770, 771
1008, 771, 772
1009, 772, 773
1010, 773, 774
1011, 774, 775
1012, 775, 587
1013, 587, 776
1014, 776, 777
1015, 777, 778
1016, 778, 779
1017, 779, 780
1018, 780, 781
1019, 781, 782
1020, 782, 783
*ELEMENT, TYPE=T3D2, ELSET=HANGERS
1021, 42, 602
1022, 63, 605
1023, 84, 608
1024, 105, 611
1025, 126, 614
1026, 147, 617
1027, 168, 620
1028, 189, 623
1029, 210, 626
1030, 231, 629
1031, 252, 632
1032, 273, 635
1033, 294, 638
1034, 315, 641
1035, 336, 644
1036, 357, 647
1037, 378, 650
1038, 399, 653
1039, 420, 656
1040, 441, 659
1041, 462, 662
1042, 483, 665
1043, 504, 668
1044, 525, 671
1045, 546, 674
1046, 36, 699
1047, 57, 702
1048, 78, 705
1049, 99, 708
1050, 120, 711
1051, 141, 714
1052, 162, 717
1053, 183, 720
1054, 204, 723
1055, 225, 726
1056, 246, 729
1057, 267, 732
1058, 288, 735
1059, 309, 738
1060, 330, 741
1061, 351, 744
1062, 372, 747
1063, 393, 750
1064, 414, 753
1065, 435, 756
1066, 456, 759
1067, 477, 762
1068, 498, 765
1069, 519, 768
1070, 540, 771
*ELEMENT, TYPE=B31, ELSET=WIND_ATTACH_LINKS
1071, 189, 784
1073, 183, 786
1075, 399, 788
1077, 393, 790
*ELEMENT, TYPE=T3D2, ELSET=WIND_CABLES
1072, 784, 785
1074, 786, 787
1076, 788, 789
1078, 790, 791
*ELEMENT, TYPE=MASS, ELSET=DECK_ACCESSORY_MASS
1079, 1
1080, 2
1081, 3
1082, 4
1083, 5
1084, 6
1085, 7
1086, 8
1087, 9
1088, 10
1089, 11
1090, 12
1091, 13
1092, 14
1093, 15
1094, 16
1095, 17
1096, 18
1097, 19
1098, 20
1099, 21
1100, 22
1101, 23
1102, 24
1103, 25
1104, 26
1105, 27
1106, 28
1107, 29
1108, 30
1109, 31
1110, 32
1111, 33
1112, 34
1113, 35
1114, 36
1115, 37
1116, 38
1117, 39
1118, 40
1119, 41
1120, 42
1121, 43
1122, 44
1123, 45
1124, 46
1125, 47
1126, 48
1127, 49
1128, 50
1129, 51
1130, 52
1131, 53
1132, 54
1133, 55
1134, 56
1135, 57
1136, 58
1137, 59
1138, 60
1139, 61
1140, 62
1141, 63
1142, 64
1143, 65
1144, 66
1145, 67
1146, 68
1147, 69
1148, 70
1149, 71
1150, 72
1151, 73
1152, 74
1153, 75
1154, 76
1155, 77
1156, 78
1157, 79
1158, 80
1159, 81
1160, 82
1161, 83
1162, 84
1163, 85
1164, 86
1165, 87
1166, 88
1167, 89
1168, 90
1169, 91
1170, 92
1171, 93
1172, 94
1173, 95
1174, 96
1175, 97
1176, 98
1177, 99
1178, 100
1179, 101
1180, 102
1181, 103
1182, 104
1183, 105
1184, 106
1185, 107
1186, 108
1187, 109
1188, 110
1189, 111
1190, 112
1191, 113
1192, 114
1193, 115
1194, 116
1195, 117
1196, 118
1197, 119
1198, 120
1199, 121
1200, 122
1201, 123
1202, 124
1203, 125
1204, 126
1205, 127
1206, 128
1207, 129
1208, 130
1209, 131
1210, 132
1211, 133
1212, 134
1213, 135
1214, 136
1215, 137
1216, 138
1217, 139
1218, 140
1219, 141
1220, 142
1221, 143
1222, 144
1223, 145
1224, 146
1225, 147
1226, 148
1227, 149
1228, 150
1229, 151
1230, 152
1231, 153
1232, 154
1233, 155
1234, 156
1235, 157
1236, 158
1237, 159
1238, 160
1239, 161
1240, 162
1241, 163
1242, 164
1243, 165
1244, 166
1245, 167
1246, 168
1247, 169
1248, 170
1249, 171
1250, 172
1251, 173
1252, 174
1253, 175
1254, 176
1255, 177
1256, 178
1257, 179
1258, 180
1259, 181
1260, 182
1261, 183
1262, 184
1263, 185
1264, 186
1265, 187
1266, 188
1267, 189
1268, 190
1269, 191
1270, 192
1271, 193
1272, 194
1273, 195
1274, 196
1275, 197
1276, 198
1277, 199
1278, 200
1279, 201
1280, 202
1281, 203
1282, 204
1283, 205
1284, 206
1285, 207
1286, 208
1287, 209
1288, 210
1289, 211
1290, 212
1291, 213
1292, 214
1293, 215
1294, 216
1295, 217
1296, 218
1297, 219
1298, 220
1299, 221
1300, 222
1301, 223
1302, 224
1303, 225
1304, 226
1305, 227
1306, 228
1307, 229
1308, 230
1309, 231
1310, 232
1311, 233
1312, 234
1313, 235
1314, 236
1315, 237
1316, 238
1317, 239
1318, 240
1319, 241
1320, 242
1321, 243
1322, 244
1323, 245
1324, 246
1325, 247
1326, 248
1327, 249
1328, 250
1329, 251
1330, 252
1331, 253
1332, 254
1333, 255
1334, 256
1335, 257
1336, 258
1337, 259
1338, 260
1339, 261
1340, 262
1341, 263
1342, 264
1343, 265
1344, 266
1345, 267
1346, 268
1347, 269
1348, 270
1349, 271
1350, 272
1351, 273
1352, 274
1353, 275
1354, 276
1355, 277
1356, 278
1357, 279
1358, 280
1359, 281
1360, 282
1361, 283
1362, 284
1363, 285
1364, 286
1365, 287
1366, 288
1367, 289
1368, 290
1369, 291
1370, 292
1371, 293
1372, 294
1373, 295
1374, 296
1375, 297
1376, 298
1377, 299
1378, 300
1379, 301
1380, 302
1381, 303
1382, 304
1383, 305
1384, 306
1385, 307
1386, 308
1387, 309
1388, 310
1389, 311
1390, 312
1391, 313
1392, 314
1393, 315
1394, 316
1395, 317
1396, 318
1397, 319
1398, 320
1399, 321
1400, 322
1401, 323
1402, 324
1403, 325
1404, 326
1405, 327
1406, 328
1407, 329
1408, 330
1409, 331
1410, 332
1411, 333
1412, 334
1413, 335
1414, 336
1415, 337
1416, 338
1417, 339
1418, 340
1419, 341
1420, 342
1421, 343
1422, 344
1423, 345
1424, 346
1425, 347
1426, 348
1427, 349
1428, 350
1429, 351
1430, 352
1431, 353
1432, 354
1433, 355
1434, 356
1435, 357
1436, 358
1437, 359
1438, 360
1439, 361
1440, 362
1441, 363
1442, 364
1443, 365
1444, 366
1445, 367
1446, 368
1447, 369
1448, 370
1449, 371
1450, 372
1451, 373
1452, 374
1453, 375
1454, 376
1455, 377
1456, 378
1457, 379
1458, 380
1459, 381
1460, 382
1461, 383
1462, 384
1463, 385
1464, 386
1465, 387
1466, 388
1467, 389
1468, 390
1469, 391
1470, 392
1471, 393
1472, 394
1473, 395
1474, 396
1475, 397
1476, 398
1477, 399
1478, 400
1479, 401
1480, 402
1481, 403
1482, 404
1483, 405
1484, 406
1485, 407
1486, 408
1487, 409
1488, 410
1489, 411
1490, 412
1491, 413
1492, 414
1493, 415
1494, 416
1495, 417
1496, 418
1497, 419
1498, 420
1499, 421
1500, 422
1501, 423
1502, 424
1503, 425
1504, 426
1505, 427
1506, 428
1507, 429
1508, 430
1509, 431
1510, 432
1511, 433
1512, 434
1513, 435
1514, 436
1515, 437
1516, 438
1517, 439
1518, 440
1519, 441
1520, 442
1521, 443
1522, 444
1523, 445
1524, 446
1525, 447
1526, 448
1527, 449
1528, 450
1529, 451
1530, 452
1531, 453
1532, 454
1533, 455
1534, 456
1535, 457
1536, 458
1537, 459
1538, 460
1539, 461
1540, 462
1541, 463
1542, 464
1543, 465
1544, 466
1545, 467
1546, 468
1547, 469
1548, 470
1549, 471
1550, 472
1551, 473
1552, 474
1553, 475
1554, 476
1555, 477
1556, 478
1557, 479
1558, 480
1559, 481
1560, 482
1561, 483
1562, 484
1563, 485
1564, 486
1565, 487
1566, 488
1567, 489
1568, 490
1569, 491
1570, 492
1571, 493
1572, 494
1573, 495
1574, 496
1575, 497
1576, 498
1577, 499
1578, 500
1579, 501
1580, 502
1581, 503
1582, 504
1583, 505
1584, 506
1585, 507
1586, 508
1587, 509
1588, 510
1589, 511
1590, 512
1591, 513
1592, 514
1593, 515
1594, 516
1595, 517
1596, 518
1597, 519
1598, 520
1599, 521
1600, 522
1601, 523
1602, 524
1603, 525
1604, 526
1605, 527
1606, 528
1607, 529
1608, 530
1609, 531
1610, 532
1611, 533
1612, 534
1613, 535
1614, 536
1615, 537
1616, 538
1617, 539
1618, 540
1619, 541
1620, 542
1621, 543
1622, 544
1623, 545
1624, 546
1625, 547
1626, 548
1627, 549
1628, 550
1629, 551
1630, 552
1631, 553
1632, 554
1633, 555
1634, 556
1635, 557
1636, 558
1637, 559
1638, 560
1639, 561
1640, 562
1641, 563
1642, 564
1643, 565
1644, 566
1645, 567
1646, 568
1647, 569
1648, 570
1649, 571
1650, 572
1651, 573
1652, 574
1653, 575
1654, 576
1655, 577
1656, 578
1657, 579
1658, 580
1659, 581
** NODE SETS
*NSET, NSET=DECK_NODES
1, 2, 3, 4, 5, 6, 7, 8, 9, 10, 11, 12, 13, 14, 15, 16
17, 18, 19, 20, 21, 22, 23, 24, 25, 26, 27, 28, 29, 30, 31, 32
33, 34, 35, 36, 37, 38, 39, 40, 41, 42, 43, 44, 45, 46, 47, 48
49, 50, 51, 52, 53, 54, 55, 56, 57, 58, 59, 60, 61, 62, 63, 64
65, 66, 67, 68, 69, 70, 71, 72, 73, 74, 75, 76, 77, 78, 79, 80
81, 82, 83, 84, 85, 86, 87, 88, 89, 90, 91, 92, 93, 94, 95, 96
97, 98, 99, 100, 101, 102, 103, 104, 105, 106, 107, 108, 109, 110, 111, 112
113, 114, 115, 116, 117, 118, 119, 120, 121, 122, 123, 124, 125, 126, 127, 128
129, 130, 131, 132, 133, 134, 135, 136, 137, 138, 139, 140, 141, 142, 143, 144
145, 146, 147, 148, 149, 150, 151, 152, 153, 154, 155, 156, 157, 158, 159, 160
161, 162, 163, 164, 165, 166, 167, 168, 169, 170, 171, 172, 173, 174, 175, 176
177, 178, 179, 180, 181, 182, 183, 184, 185, 186, 187, 188, 189, 190, 191, 192
193, 194, 195, 196, 197, 198, 199, 200, 201, 202, 203, 204, 205, 206, 207, 208
209, 210, 211, 212, 213, 214, 215, 216, 217, 218, 219, 220, 221, 222, 223, 224
225, 226, 227, 228, 229, 230, 231, 232, 233, 234, 235, 236, 237, 238, 239, 240
241, 242, 243, 244, 245, 246, 247, 248, 249, 250, 251, 252, 253, 254, 255, 256
257, 258, 259, 260, 261, 262, 263, 264, 265, 266, 267, 268, 269, 270, 271, 272
273, 274, 275, 276, 277, 278, 279, 280, 281, 282, 283, 284, 285, 286, 287, 288
289, 290, 291, 292, 293, 294, 295, 296, 297, 298, 299, 300, 301, 302, 303, 304
305, 306, 307, 308, 309, 310, 311, 312, 313, 314, 315, 316, 317, 318, 319, 320
321, 322, 323, 324, 325, 326, 327, 328, 329, 330, 331, 332, 333, 334, 335, 336
337, 338, 339, 340, 341, 342, 343, 344, 345, 346, 347, 348, 349, 350, 351, 352
353, 354, 355, 356, 357, 358, 359, 360, 361, 362, 363, 364, 365, 366, 367, 368
369, 370, 371, 372, 373, 374, 375, 376, 377, 378, 379, 380, 381, 382, 383, 384
385, 386, 387, 388, 389, 390, 391, 392, 393, 394, 395, 396, 397, 398, 399, 400
401, 402, 403, 404, 405, 406, 407, 408, 409, 410, 411, 412, 413, 414, 415, 416
417, 418, 419, 420, 421, 422, 423, 424, 425, 426, 427, 428, 429, 430, 431, 432
433, 434, 435, 436, 437, 438, 439, 440, 441, 442, 443, 444, 445, 446, 447, 448
449, 450, 451, 452, 453, 454, 455, 456, 457, 458, 459, 460, 461, 462, 463, 464
465, 466, 467, 468, 469, 470, 471, 472, 473, 474, 475, 476, 477, 478, 479, 480
481, 482, 483, 484, 485, 486, 487, 488, 489, 490, 491, 492, 493, 494, 495, 496
497, 498, 499, 500, 501, 502, 503, 504, 505, 506, 507, 508, 509, 510, 511, 512
513, 514, 515, 516, 517, 518, 519, 520, 521, 522, 523, 524, 525, 526, 527, 528
529, 530, 531, 532, 533, 534, 535, 536, 537, 538, 539, 540, 541, 542, 543, 544
545, 546, 547, 548, 549, 550, 551, 552, 553, 554, 555, 556, 557, 558, 559, 560
561, 562, 563, 564, 565, 566, 567, 568, 569, 570, 571, 572, 573, 574, 575, 576
577, 578, 579, 580, 581
*NSET, NSET=DECK_SHELL_NODES
1, 2, 3, 4, 5, 6, 7, 8, 9, 10, 11, 12, 13, 14, 15, 16
17, 18, 19, 20, 21, 22, 23, 24, 25, 26, 27, 28, 29, 30, 31, 32
33, 34, 35, 36, 37, 38, 39, 40, 41, 42, 43, 44, 45, 46, 47, 48
49, 50, 51, 52, 53, 54, 55, 56, 57, 58, 59, 60, 61, 62, 63, 64
65, 66, 67, 68, 69, 70, 71, 72, 73, 74, 75, 76, 77, 78, 79, 80
81, 82, 83, 84, 85, 86, 87, 88, 89, 90, 91, 92, 93, 94, 95, 96
97, 98, 99, 100, 101, 102, 103, 104, 105, 106, 107, 108, 109, 110, 111, 112
113, 114, 115, 116, 117, 118, 119, 120, 121, 122, 123, 124, 125, 126, 127, 128
129, 130, 131, 132, 133, 134, 135, 136, 137, 138, 139, 140, 141, 142, 143, 144
145, 146, 147, 148, 149, 150, 151, 152, 153, 154, 155, 156, 157, 158, 159, 160
161, 162, 163, 164, 165, 166, 167, 168, 169, 170, 171, 172, 173, 174, 175, 176
177, 178, 179, 180, 181, 182, 183, 184, 185, 186, 187, 188, 189, 190, 191, 192
193, 194, 195, 196, 197, 198, 199, 200, 201, 202, 203, 204, 205, 206, 207, 208
209, 210, 211, 212, 213, 214, 215, 216, 217, 218, 219, 220, 221, 222, 223, 224
225, 226, 227, 228, 229, 230, 231, 232, 233, 234, 235, 236, 237, 238, 239, 240
241, 242, 243, 244, 245, 246, 247, 248, 249, 250, 251, 252, 253, 254, 255, 256
257, 258, 259, 260, 261, 262, 263, 264, 265, 266, 267, 268, 269, 270, 271, 272
273, 274, 275, 276, 277, 278, 279, 280, 281, 282, 283, 284, 285, 286, 287, 288
289, 290, 291, 292, 293, 294, 295, 296, 297, 298, 299, 300, 301, 302, 303, 304
305, 306, 307, 308, 309, 310, 311, 312, 313, 314, 315, 316, 317, 318, 319, 320
321, 322, 323, 324, 325, 326, 327, 328, 329, 330, 331, 332, 333, 334, 335, 336
337, 338, 339, 340, 341, 342, 343, 344, 345, 346, 347, 348, 349, 350, 351, 352
353, 354, 355, 356, 357, 358, 359, 360, 361, 362, 363, 364, 365, 366, 367, 368
369, 370, 371, 372, 373, 374, 375, 376, 377, 378, 379, 380, 381, 382, 383, 384
385, 386, 387, 388, 389, 390, 391, 392, 393, 394, 395, 396, 397, 398, 399, 400
401, 402, 403, 404, 405, 406, 407, 408, 409, 410, 411, 412, 413, 414, 415, 416
417, 418, 419, 420, 421, 422, 423, 424, 425, 426, 427, 428, 429, 430, 431, 432
433, 434, 435, 436, 437, 438, 439, 440, 441, 442, 443, 444, 445, 446, 447, 448
449, 450, 451, 452, 453, 454, 455, 456, 457, 458, 459, 460, 461, 462, 463, 464
465, 466, 467, 468, 469, 470, 471, 472, 473, 474, 475, 476, 477, 478, 479, 480
481, 482, 483, 484, 485, 486, 487, 488, 489, 490, 491, 492, 493, 494, 495, 496
497, 498, 499, 500, 501, 502, 503, 504, 505, 506, 507, 508, 509, 510, 511, 512
513, 514, 515, 516, 517, 518, 519, 520, 521, 522, 523, 524, 525, 526, 527, 528
529, 530, 531, 532, 533, 534, 535, 536, 537, 538, 539, 540, 541, 542, 543, 544
545, 546, 547, 548, 549, 550, 551, 552, 553, 554, 555, 556, 557, 558, 559, 560
561, 562, 563, 564, 565, 566, 567, 568, 569, 570, 571, 572, 573, 574, 575, 576
577, 578, 579, 580, 581
*NSET, NSET=DECK_CENTER_NODES
4, 11, 18, 25, 32, 39, 46, 53, 60, 67, 74, 81, 88, 95, 102, 109
116, 123, 130, 137, 144, 151, 158, 165, 172, 179, 186, 193, 200, 207, 214, 221
228, 235, 242, 249, 256, 263, 270, 277, 284, 291, 298, 305, 312, 319, 326, 333
340, 347, 354, 361, 368, 375, 382, 389, 396, 403, 410, 417, 424, 431, 438, 445
452, 459, 466, 473, 480, 487, 494, 501, 508, 515, 522, 529, 536, 543, 550, 557
564, 571, 578
*NSET, NSET=GIRDER_NODES
2, 6, 9, 13, 16, 20, 23, 27, 30, 34, 37, 41, 44, 48, 51, 55
58, 62, 65, 69, 72, 76, 79, 83, 86, 90, 93, 97, 100, 104, 107, 111
114, 118, 121, 125, 128, 132, 135, 139, 142, 146, 149, 153, 156, 160, 163, 167
170, 174, 177, 181, 184, 188, 191, 195, 198, 202, 205, 209, 212, 216, 219, 223
226, 230, 233, 237, 240, 244, 247, 251, 254, 258, 261, 265, 268, 272, 275, 279
282, 286, 289, 293, 296, 300, 303, 307, 310, 314, 317, 321, 324, 328, 331, 335
338, 342, 345, 349, 352, 356, 359, 363, 366, 370, 373, 377, 380, 384, 387, 391
394, 398, 401, 405, 408, 412, 415, 419, 422, 426, 429, 433, 436, 440, 443, 447
450, 454, 457, 461, 464, 468, 471, 475, 478, 482, 485, 489, 492, 496, 499, 503
506, 510, 513, 517, 520, 524, 527, 531, 534, 538, 541, 545, 548, 552, 555, 559
562, 566, 569, 573, 576, 580
*NSET, NSET=PANEL_JOINT_NODES
3, 5, 10, 12, 17, 19, 24, 26, 31, 33, 38, 40, 45, 47, 52, 54
59, 61, 66, 68, 73, 75, 80, 82, 87, 89, 94, 96, 101, 103, 108, 110
115, 117, 122, 124, 129, 131, 136, 138, 143, 145, 150, 152, 157, 159, 164, 166
171, 173, 178, 180, 185, 187, 192, 194, 199, 201, 206, 208, 213, 215, 220, 222
227, 229, 234, 236, 241, 243, 248, 250, 255, 257, 262, 264, 269, 271, 276, 278
283, 285, 290, 292, 297, 299, 304, 306, 311, 313, 318, 320, 325, 327, 332, 334
339, 341, 346, 348, 353, 355, 360, 362, 367, 369, 374, 376, 381, 383, 388, 390
395, 397, 402, 404, 409, 411, 416, 418, 423, 425, 430, 432, 437, 439, 444, 446
451, 453, 458, 460, 465, 467, 472, 474, 479, 481, 486, 488, 493, 495, 500, 502
507, 509, 514, 516, 521, 523, 528, 530, 535, 537, 542, 544, 549, 551, 556, 558
563, 565, 570, 572, 577, 579
*NSET, NSET=DECK_EDGE_NODES
1, 7, 8, 14, 15, 21, 22, 28, 29, 35, 36, 42, 43, 49, 50, 56
57, 63, 64, 70, 71, 77, 78, 84, 85, 91, 92, 98, 99, 105, 106, 112
113, 119, 120, 126, 127, 133, 134, 140, 141, 147, 148, 154, 155, 161, 162, 168
169, 175, 176, 182, 183, 189, 190, 196, 197, 203, 204, 210, 211, 217, 218, 224
225, 231, 232, 238, 239, 245, 246, 252, 253, 259, 260, 266, 267, 273, 274, 280
281, 287, 288, 294, 295, 301, 302, 308, 309, 315, 316, 322, 323, 329, 330, 336
337, 343, 344, 350, 351, 357, 358, 364, 365, 371, 372, 378, 379, 385, 386, 392
393, 399, 400, 406, 407, 413, 414, 420, 421, 427, 428, 434, 435, 441, 442, 448
449, 455, 456, 462, 463, 469, 470, 476, 477, 483, 484, 490, 491, 497, 498, 504
505, 511, 512, 518, 519, 525, 526, 532, 533, 539, 540, 546, 547, 553, 554, 560
561, 567, 568, 574, 575, 581
*NSET, NSET=MIDSPAN_NODES
288, 289, 290, 291, 292, 293, 294
*NSET, NSET=MONITOR
4, 11, 18, 25, 32, 39, 46, 53, 60, 67, 74, 81, 88, 95, 102, 109
116, 123, 130, 137, 144, 151, 158, 165, 172, 179, 186, 193, 200, 207, 214, 221
228, 235, 242, 249, 256, 263, 270, 277, 284, 288, 289, 290, 291, 292, 293, 294
298, 305, 312, 319, 326, 333, 340, 347, 354, 361, 368, 375, 382, 389, 396, 403
410, 417, 424, 431, 438, 445, 452, 459, 466, 473, 480, 487, 494, 501, 508, 515
522, 529, 536, 543, 550, 557, 564, 571, 578, 583, 585, 587, 589, 590, 686, 687
783, 784, 785, 786, 787, 788, 789, 790, 791
*NSET, NSET=DECK_LEFT_PIN
2, 6
*NSET, NSET=DECK_RIGHT_ROLLER
576, 580
*NSET, NSET=TOWER_BASES
582, 584, 586, 588
*NSET, NSET=TOWER_TOPS
583, 585, 587, 589
*NSET, NSET=MAIN_CABLE_NODES
590, 591, 592, 593, 594, 595, 596, 597, 598, 599, 600, 601, 602, 603, 604, 605
606, 607, 608, 609, 610, 611, 612, 613, 614, 615, 616, 617, 618, 619, 620, 621
622, 623, 624, 625, 626, 627, 628, 629, 630, 631, 632, 633, 634, 635, 636, 637
638, 639, 640, 641, 642, 643, 644, 645, 646, 647, 648, 649, 650, 651, 652, 653
654, 655, 656, 657, 658, 659, 660, 661, 662, 663, 664, 665, 666, 667, 668, 669
670, 671, 672, 673, 674, 675, 676, 677, 678, 679, 680, 681, 682, 683, 684, 685
686, 687, 688, 689, 690, 691, 692, 693, 694, 695, 696, 697, 698, 699, 700, 701
702, 703, 704, 705, 706, 707, 708, 709, 710, 711, 712, 713, 714, 715, 716, 717
718, 719, 720, 721, 722, 723, 724, 725, 726, 727, 728, 729, 730, 731, 732, 733
734, 735, 736, 737, 738, 739, 740, 741, 742, 743, 744, 745, 746, 747, 748, 749
750, 751, 752, 753, 754, 755, 756, 757, 758, 759, 760, 761, 762, 763, 764, 765
766, 767, 768, 769, 770, 771, 772, 773, 774, 775, 776, 777, 778, 779, 780, 781
782, 783
*NSET, NSET=MAIN_CABLE_ANCHORS
590, 686, 687, 783
*NSET, NSET=WIND_ATTACH_NODES
784, 786, 788, 790
*NSET, NSET=WIND_ANCHORS
785, 787, 789, 791
*ELSET, ELSET=E_GRAV
1, 2, 3, 4, 5, 6, 7, 8, 9, 10, 11, 12, 13, 14, 15, 16
17, 18, 19, 20, 21, 22, 23, 24, 25, 26, 27, 28, 29, 30, 31, 32
33, 34, 35, 36, 37, 38, 39, 40, 41, 42, 43, 44, 45, 46, 47, 48
49, 50, 51, 52, 53, 54, 55, 56, 57, 58, 59, 60, 61, 62, 63, 64
65, 66, 67, 68, 69, 70, 71, 72, 73, 74, 75, 76, 77, 78, 79, 80
81, 82, 83, 84, 85, 86, 87, 88, 89, 90, 91, 92, 93, 94, 95, 96
97, 98, 99, 100, 101, 102, 103, 104, 105, 106, 107, 108, 109, 110, 111, 112
113, 114, 115, 116, 117, 118, 119, 120, 121, 122, 123, 124, 125, 126, 127, 128
129, 130, 131, 132, 133, 134, 135, 136, 137, 138, 139, 140, 141, 142, 143, 144
145, 146, 147, 148, 149, 150, 151, 152, 153, 154, 155, 156, 157, 158, 159, 160
161, 162, 163, 164, 165, 166, 167, 168, 169, 170, 171, 172, 173, 174, 175, 176
177, 178, 179, 180, 181, 182, 183, 184, 185, 186, 187, 188, 189, 190, 191, 192
193, 194, 195, 196, 197, 198, 199, 200, 201, 202, 203, 204, 205, 206, 207, 208
209, 210, 211, 212, 213, 214, 215, 216, 217, 218, 219, 220, 221, 222, 223, 224
225, 226, 227, 228, 229, 230, 231, 232, 233, 234, 235, 236, 237, 238, 239, 240
241, 242, 243, 244, 245, 246, 247, 248, 249, 250, 251, 252, 253, 254, 255, 256
257, 258, 259, 260, 261, 262, 263, 264, 265, 266, 267, 268, 269, 270, 271, 272
273, 274, 275, 276, 277, 278, 279, 280, 281, 282, 283, 284, 285, 286, 287, 288
289, 290, 291, 292, 293, 294, 295, 296, 297, 298, 299, 300, 301, 302, 303, 304
305, 306, 307, 308, 309, 310, 311, 312, 313, 314, 315, 316, 317, 318, 319, 320
321, 322, 323, 324, 325, 326, 327, 328, 329, 330, 331, 332, 333, 334, 335, 336
337, 338, 339, 340, 341, 342, 343, 344, 345, 346, 347, 348, 349, 350, 351, 352
353, 354, 355, 356, 357, 358, 359, 360, 361, 362, 363, 364, 365, 366, 367, 368
369, 370, 371, 372, 373, 374, 375, 376, 377, 378, 379, 380, 381, 382, 383, 384
385, 386, 387, 388, 389, 390, 391, 392, 393, 394, 395, 396, 397, 398, 399, 400
401, 402, 403, 404, 405, 406, 407, 408, 409, 410, 411, 412, 413, 414, 415, 416
417, 418, 419, 420, 421, 422, 423, 424, 425, 426, 427, 428, 429, 430, 431, 432
433, 434, 435, 436, 437, 438, 439, 440, 441, 442, 443, 444, 445, 446, 447, 448
449, 450, 451, 452, 453, 454, 455, 456, 457, 458, 459, 460, 461, 462, 463, 464
465, 466, 467, 468, 469, 470, 471, 472, 473, 474, 475, 476, 477, 478, 479, 480
481, 482, 483, 484, 485, 486, 487, 488, 489, 490, 491, 492, 493, 494, 495, 496
497, 498, 499, 500, 501, 502, 503, 504, 505, 506, 507, 508, 509, 510, 511, 512
513, 514, 515, 516, 517, 518, 519, 520, 521, 522, 523, 524, 525, 526, 527, 528
529, 530, 531, 532, 533, 534, 535, 536, 537, 538, 539, 540, 541, 542, 543, 544
545, 546, 547, 548, 549, 550, 551, 552, 553, 554, 555, 556, 557, 558, 559, 560
561, 562, 563, 564, 565, 566, 567, 568, 569, 570, 571, 572, 573, 574, 575, 576
577, 578, 579, 580, 581, 582, 583, 584, 585, 586, 587, 588, 589, 590, 591, 592
593, 594, 595, 596, 597, 598, 599, 600, 601, 602, 603, 604, 605, 606, 607, 608
609, 610, 611, 612, 613, 614, 615, 616, 617, 618, 619, 620, 621, 622, 623, 624
625, 626, 627, 628, 629, 630, 631, 632, 633, 634, 635, 636, 637, 638, 639, 640
641, 642, 643, 644, 645, 646, 647, 648, 649, 650, 651, 652, 653, 654, 655, 656
657, 658, 659, 660, 661, 662, 663, 664, 665, 666, 667, 668, 669, 670, 671, 672
673, 674, 675, 676, 677, 678, 679, 680, 681, 682, 683, 684, 685, 686, 687, 688
689, 690, 691, 692, 693, 694, 695, 696, 697, 698, 699, 700, 701, 702, 703, 704
705, 706, 707, 708, 709, 710, 711, 712, 713, 714, 715, 716, 717, 718, 719, 720
721, 722, 723, 724, 725, 726, 727, 728, 729, 730, 731, 732, 733, 734, 735, 736
737, 738, 739, 740, 741, 742, 743, 744, 745, 746, 747, 748, 749, 750, 751, 752
753, 754, 755, 756, 757, 758, 759, 760, 761, 762, 763, 764, 765, 766, 767, 768
769, 770, 771, 772, 773, 774, 775, 776, 777, 778, 779, 780, 781, 782, 783, 784
785, 786, 787, 788, 789, 790, 791, 792, 793, 794, 795, 796, 797, 798, 799, 800
801, 802, 803, 804, 805, 806, 807, 808, 809, 810, 811, 812, 813, 814, 815, 816
817, 818, 819, 820, 821, 822, 823, 824, 825, 826, 827, 828, 829, 830, 831, 832
833, 834, 835, 836, 837, 838, 839, 840, 841, 842, 843, 844, 845, 846, 847, 848
849, 850, 851, 852, 853, 854, 855, 856, 857, 858, 859, 860, 861, 862, 863, 864
865, 866, 867, 868, 869, 870, 871, 872, 873, 874, 875, 876, 877, 878, 879, 880
881, 882, 883, 884, 885, 886, 887, 888, 889, 890, 891, 892, 893, 894, 895, 896
897, 898, 899, 900, 901, 902, 903, 904, 905, 906, 907, 908, 909, 910, 911, 912
913, 914, 915, 916, 917, 918, 919, 920, 921, 922, 923, 924, 925, 926, 927, 928
929, 930, 931, 932, 933, 934, 935, 936, 937, 938, 939, 940, 941, 942, 943, 944
945, 946, 947, 948, 949, 950, 951, 952, 953, 954, 955, 956, 957, 958, 959, 960
961, 962, 963, 964, 965, 966, 967, 968, 969, 970, 971, 972, 973, 974, 975, 976
977, 978, 979, 980, 981, 982, 983, 984, 985, 986, 987, 988, 989, 990, 991, 992
993, 994, 995, 996, 997, 998, 999, 1000, 1001, 1002, 1003, 1004, 1005, 1006, 1007, 1008
1009, 1010, 1011, 1012, 1013, 1014, 1015, 1016, 1017, 1018, 1019, 1020, 1021, 1022, 1023, 1024
1025, 1026, 1027, 1028, 1029, 1030, 1031, 1032, 1033, 1034, 1035, 1036, 1037, 1038, 1039, 1040
1041, 1042, 1043, 1044, 1045, 1046, 1047, 1048, 1049, 1050, 1051, 1052, 1053, 1054, 1055, 1056
1057, 1058, 1059, 1060, 1061, 1062, 1063, 1064, 1065, 1066, 1067, 1068, 1069, 1070, 1071, 1072
1073, 1074, 1075, 1076, 1077, 1078
*ELSET, ELSET=E_STRUCTURAL
1, 2, 3, 4, 5, 6, 7, 8, 9, 10, 11, 12, 13, 14, 15, 16
17, 18, 19, 20, 21, 22, 23, 24, 25, 26, 27, 28, 29, 30, 31, 32
33, 34, 35, 36, 37, 38, 39, 40, 41, 42, 43, 44, 45, 46, 47, 48
49, 50, 51, 52, 53, 54, 55, 56, 57, 58, 59, 60, 61, 62, 63, 64
65, 66, 67, 68, 69, 70, 71, 72, 73, 74, 75, 76, 77, 78, 79, 80
81, 82, 83, 84, 85, 86, 87, 88, 89, 90, 91, 92, 93, 94, 95, 96
97, 98, 99, 100, 101, 102, 103, 104, 105, 106, 107, 108, 109, 110, 111, 112
113, 114, 115, 116, 117, 118, 119, 120, 121, 122, 123, 124, 125, 126, 127, 128
129, 130, 131, 132, 133, 134, 135, 136, 137, 138, 139, 140, 141, 142, 143, 144
145, 146, 147, 148, 149, 150, 151, 152, 153, 154, 155, 156, 157, 158, 159, 160
161, 162, 163, 164, 165, 166, 167, 168, 169, 170, 171, 172, 173, 174, 175, 176
177, 178, 179, 180, 181, 182, 183, 184, 185, 186, 187, 188, 189, 190, 191, 192
193, 194, 195, 196, 197, 198, 199, 200, 201, 202, 203, 204, 205, 206, 207, 208
209, 210, 211, 212, 213, 214, 215, 216, 217, 218, 219, 220, 221, 222, 223, 224
225, 226, 227, 228, 229, 230, 231, 232, 233, 234, 235, 236, 237, 238, 239, 240
241, 242, 243, 244, 245, 246, 247, 248, 249, 250, 251, 252, 253, 254, 255, 256
257, 258, 259, 260, 261, 262, 263, 264, 265, 266, 267, 268, 269, 270, 271, 272
273, 274, 275, 276, 277, 278, 279, 280, 281, 282, 283, 284, 285, 286, 287, 288
289, 290, 291, 292, 293, 294, 295, 296, 297, 298, 299, 300, 301, 302, 303, 304
305, 306, 307, 308, 309, 310, 311, 312, 313, 314, 315, 316, 317, 318, 319, 320
321, 322, 323, 324, 325, 326, 327, 328, 329, 330, 331, 332, 333, 334, 335, 336
337, 338, 339, 340, 341, 342, 343, 344, 345, 346, 347, 348, 349, 350, 351, 352
353, 354, 355, 356, 357, 358, 359, 360, 361, 362, 363, 364, 365, 366, 367, 368
369, 370, 371, 372, 373, 374, 375, 376, 377, 378, 379, 380, 381, 382, 383, 384
385, 386, 387, 388, 389, 390, 391, 392, 393, 394, 395, 396, 397, 398, 399, 400
401, 402, 403, 404, 405, 406, 407, 408, 409, 410, 411, 412, 413, 414, 415, 416
417, 418, 419, 420, 421, 422, 423, 424, 425, 426, 427, 428, 429, 430, 431, 432
433, 434, 435, 436, 437, 438, 439, 440, 441, 442, 443, 444, 445, 446, 447, 448
449, 450, 451, 452, 453, 454, 455, 456, 457, 458, 459, 460, 461, 462, 463, 464
465, 466, 467, 468, 469, 470, 471, 472, 473, 474, 475, 476, 477, 478, 479, 480
481, 482, 483, 484, 485, 486, 487, 488, 489, 490, 491, 492, 493, 494, 495, 496
497, 498, 499, 500, 501, 502, 503, 504, 505, 506, 507, 508, 509, 510, 511, 512
513, 514, 515, 516, 517, 518, 519, 520, 521, 522, 523, 524, 525, 526, 527, 528
529, 530, 531, 532, 533, 534, 535, 536, 537, 538, 539, 540, 541, 542, 543, 544
545, 546, 547, 548, 549, 550, 551, 552, 553, 554, 555, 556, 557, 558, 559, 560
561, 562, 563, 564, 565, 566, 567, 568, 569, 570, 571, 572, 573, 574, 575, 576
577, 578, 579, 580, 581, 582, 583, 584, 585, 586, 587, 588, 589, 590, 591, 592
593, 594, 595, 596, 597, 598, 599, 600, 601, 602, 603, 604, 605, 606, 607, 608
609, 610, 611, 612, 613, 614, 615, 616, 617, 618, 619, 620, 621, 622, 623, 624
625, 626, 627, 628, 629, 630, 631, 632, 633, 634, 635, 636, 637, 638, 639, 640
641, 642, 643, 644, 645, 646, 647, 648, 649, 650, 651, 652, 653, 654, 655, 656
657, 658, 659, 660, 661, 662, 663, 664, 665, 666, 667, 668, 669, 670, 671, 672
673, 674, 675, 676, 677, 678, 679, 680, 681, 682, 683, 684, 685, 686, 687, 688
689, 690, 691, 692, 693, 694, 695, 696, 697, 698, 699, 700, 701, 702, 703, 704
705, 706, 707, 708, 709, 710, 711, 712, 713, 714, 715, 716, 717, 718, 719, 720
721, 722, 723, 724, 725, 726, 727, 728, 729, 730, 731, 732, 733, 734, 735, 736
737, 738, 739, 740, 741, 742, 743, 744, 745, 746, 747, 748, 749, 750, 751, 752
753, 754, 755, 756, 757, 758, 759, 760, 761, 762, 763, 764, 765, 766, 767, 768
769, 770, 771, 772, 773, 774, 775, 776, 777, 778, 779, 780, 781, 782, 783, 784
785, 786, 787, 788, 789, 790, 791, 792, 793, 794, 795, 796, 797, 798, 799, 800
801, 802, 803, 804, 805, 806, 807, 808, 809, 810, 811, 812, 813, 814, 815, 816
817, 818, 819, 820, 821, 822, 823, 824, 825, 826, 827, 828, 829, 830, 831, 832
833, 834, 835, 836, 837, 838, 839, 840, 841, 842, 843, 844, 845, 846, 847, 848
849, 850, 851, 852, 853, 854, 855, 856, 857, 858, 859, 860, 861, 862, 863, 864
865, 866, 867, 868, 869, 870, 871, 872, 873, 874, 875, 876, 877, 878, 879, 880
881, 882, 883, 884, 885, 886, 887, 888, 889, 890, 891, 892, 893, 894, 895, 896
897, 898, 899, 900, 901, 902, 903, 904, 905, 906, 907, 908, 909, 910, 911, 912
913, 914, 915, 916, 917, 918, 919, 920, 921, 922, 923, 924, 925, 926, 927, 928
929, 930, 931, 932, 933, 934, 935, 936, 937, 938, 939, 940, 941, 942, 943, 944
945, 946, 947, 948, 949, 950, 951, 952, 953, 954, 955, 956, 957, 958, 959, 960
961, 962, 963, 964, 965, 966, 967, 968, 969, 970, 971, 972, 973, 974, 975, 976
977, 978, 979, 980, 981, 982, 983, 984, 985, 986, 987, 988, 989, 990, 991, 992
993, 994, 995, 996, 997, 998, 999, 1000, 1001, 1002, 1003, 1004, 1005, 1006, 1007, 1008
1009, 1010, 1011, 1012, 1013, 1014, 1015, 1016, 1017, 1018, 1019, 1020, 1021, 1022, 1023, 1024
1025, 1026, 1027, 1028, 1029, 1030, 1031, 1032, 1033, 1034, 1035, 1036, 1037, 1038, 1039, 1040
1041, 1042, 1043, 1044, 1045, 1046, 1047, 1048, 1049, 1050, 1051, 1052, 1053, 1054, 1055, 1056
1057, 1058, 1059, 1060, 1061, 1062, 1063, 1064, 1065, 1066, 1067, 1068, 1069, 1070, 1071, 1072
1073, 1074, 1075, 1076, 1077, 1078
** MATERIALS
*MATERIAL, NAME=STEEL_Q235_SCREEN
*ELASTIC
200000., 0.30
*DENSITY
7.85e-9
*MATERIAL, NAME=CONCRETE_C30_SCREEN
*ELASTIC
30000., 0.20
*DENSITY
2.50e-9
*MATERIAL, NAME=DECK_PANEL_EQUIV_SCREEN
*ELASTIC
30000, 0.2
*DENSITY
2.67908381e-09
*MATERIAL, NAME=MAIN_CABLE_WIRE_SCREEN
*ELASTIC
195000., 0.30
*DENSITY
7.85e-9
*MATERIAL, NAME=MC_PRE_001
*ELASTIC
195000., 0.30
*DENSITY
7.85e-9
*EXPANSION, ZERO=0.
7.106485843943e-04
*MATERIAL, NAME=MC_PRE_002
*ELASTIC
195000., 0.30
*DENSITY
7.85e-9
*EXPANSION, ZERO=0.
7.106485843943e-04
*MATERIAL, NAME=MC_PRE_003
*ELASTIC
195000., 0.30
*DENSITY
7.85e-9
*EXPANSION, ZERO=0.
7.106485843943e-04
*MATERIAL, NAME=MC_PRE_004
*ELASTIC
195000., 0.30
*DENSITY
7.85e-9
*EXPANSION, ZERO=0.
7.106485843943e-04
*MATERIAL, NAME=MC_PRE_005
*ELASTIC
195000., 0.30
*DENSITY
7.85e-9
*EXPANSION, ZERO=0.
7.106485843943e-04
*MATERIAL, NAME=MC_PRE_006
*ELASTIC
195000., 0.30
*DENSITY
7.85e-9
*EXPANSION, ZERO=0.
7.106485843943e-04
*MATERIAL, NAME=MC_PRE_007
*ELASTIC
195000., 0.30
*DENSITY
7.85e-9
*EXPANSION, ZERO=0.
7.106485843943e-04
*MATERIAL, NAME=MC_PRE_008
*ELASTIC
195000., 0.30
*DENSITY
7.85e-9
*EXPANSION, ZERO=0.
7.106485843943e-04
*MATERIAL, NAME=MC_PRE_009
*ELASTIC
195000., 0.30
*DENSITY
7.85e-9
*EXPANSION, ZERO=0.
7.106485843943e-04
*MATERIAL, NAME=MC_PRE_010
*ELASTIC
195000., 0.30
*DENSITY
7.85e-9
*EXPANSION, ZERO=0.
7.083044597260e-04
*MATERIAL, NAME=MC_PRE_011
*ELASTIC
195000., 0.30
*DENSITY
7.85e-9
*EXPANSION, ZERO=0.
7.060114469380e-04
*MATERIAL, NAME=MC_PRE_012
*ELASTIC
195000., 0.30
*DENSITY
7.85e-9
*EXPANSION, ZERO=0.
7.037700409031e-04
*MATERIAL, NAME=MC_PRE_013
*ELASTIC
195000., 0.30
*DENSITY
7.85e-9
*EXPANSION, ZERO=0.
7.015807386396e-04
*MATERIAL, NAME=MC_PRE_014
*ELASTIC
195000., 0.30
*DENSITY
7.85e-9
*EXPANSION, ZERO=0.
6.994440294116e-04
*MATERIAL, NAME=MC_PRE_015
*ELASTIC
195000., 0.30
*DENSITY
7.85e-9
*EXPANSION, ZERO=0.
6.973603987622e-04
*MATERIAL, NAME=MC_PRE_016
*ELASTIC
195000., 0.30
*DENSITY
7.85e-9
*EXPANSION, ZERO=0.
6.953303195679e-04
*MATERIAL, NAME=MC_PRE_017
*ELASTIC
195000., 0.30
*DENSITY
7.85e-9
*EXPANSION, ZERO=0.
6.933542643924e-04
*MATERIAL, NAME=MC_PRE_018
*ELASTIC
195000., 0.30
*DENSITY
7.85e-9
*EXPANSION, ZERO=0.
6.914326964239e-04
*MATERIAL, NAME=MC_PRE_019
*ELASTIC
195000., 0.30
*DENSITY
7.85e-9
*EXPANSION, ZERO=0.
6.895660730552e-04
*MATERIAL, NAME=MC_PRE_020
*ELASTIC
195000., 0.30
*DENSITY
7.85e-9
*EXPANSION, ZERO=0.
6.877548378170e-04
*MATERIAL, NAME=MC_PRE_021
*ELASTIC
195000., 0.30
*DENSITY
7.85e-9
*EXPANSION, ZERO=0.
6.859994313881e-04
*MATERIAL, NAME=MC_PRE_022
*ELASTIC
195000., 0.30
*DENSITY
7.85e-9
*EXPANSION, ZERO=0.
6.843002834145e-04
*MATERIAL, NAME=MC_PRE_023
*ELASTIC
195000., 0.30
*DENSITY
7.85e-9
*EXPANSION, ZERO=0.
6.826578139812e-04
*MATERIAL, NAME=MC_PRE_024
*ELASTIC
195000., 0.30
*DENSITY
7.85e-9
*EXPANSION, ZERO=0.
6.810724347407e-04
*MATERIAL, NAME=MC_PRE_025
*ELASTIC
195000., 0.30
*DENSITY
7.85e-9
*EXPANSION, ZERO=0.
6.795445420067e-04
*MATERIAL, NAME=MC_PRE_026
*ELASTIC
195000., 0.30
*DENSITY
7.85e-9
*EXPANSION, ZERO=0.
6.780745275217e-04
*MATERIAL, NAME=MC_PRE_027
*ELASTIC
195000., 0.30
*DENSITY
7.85e-9
*EXPANSION, ZERO=0.
6.766627640580e-04
*MATERIAL, NAME=MC_PRE_028
*ELASTIC
195000., 0.30
*DENSITY
7.85e-9
*EXPANSION, ZERO=0.
6.753096227503e-04
*MATERIAL, NAME=MC_PRE_029
*ELASTIC
195000., 0.30
*DENSITY
7.85e-9
*EXPANSION, ZERO=0.
6.740154523971e-04
*MATERIAL, NAME=MC_PRE_030
*ELASTIC
195000., 0.30
*DENSITY
7.85e-9
*EXPANSION, ZERO=0.
6.727805947358e-04
*MATERIAL, NAME=MC_PRE_031
*ELASTIC
195000., 0.30
*DENSITY
7.85e-9
*EXPANSION, ZERO=0.
6.716053781092e-04
*MATERIAL, NAME=MC_PRE_032
*ELASTIC
195000., 0.30
*DENSITY
7.85e-9
*EXPANSION, ZERO=0.
6.704901126010e-04
*MATERIAL, NAME=MC_PRE_033
*ELASTIC
195000., 0.30
*DENSITY
7.85e-9
*EXPANSION, ZERO=0.
6.694351024271e-04
*MATERIAL, NAME=MC_PRE_034
*ELASTIC
195000., 0.30
*DENSITY
7.85e-9
*EXPANSION, ZERO=0.
6.684406295461e-04
*MATERIAL, NAME=MC_PRE_035
*ELASTIC
195000., 0.30
*DENSITY
7.85e-9
*EXPANSION, ZERO=0.
6.675069665723e-04
*MATERIAL, NAME=MC_PRE_036
*ELASTIC
195000., 0.30
*DENSITY
7.85e-9
*EXPANSION, ZERO=0.
6.666343670919e-04
*MATERIAL, NAME=MC_PRE_037
*ELASTIC
195000., 0.30
*DENSITY
7.85e-9
*EXPANSION, ZERO=0.
6.658230721789e-04
*MATERIAL, NAME=MC_PRE_038
*ELASTIC
195000., 0.30
*DENSITY
7.85e-9
*EXPANSION, ZERO=0.
6.650733061818e-04
*MATERIAL, NAME=MC_PRE_039
*ELASTIC
195000., 0.30
*DENSITY
7.85e-9
*EXPANSION, ZERO=0.
6.643852774088e-04
*MATERIAL, NAME=MC_PRE_040
*ELASTIC
195000., 0.30
*DENSITY
7.85e-9
*EXPANSION, ZERO=0.
6.637591784536e-04
*MATERIAL, NAME=MC_PRE_041
*ELASTIC
195000., 0.30
*DENSITY
7.85e-9
*EXPANSION, ZERO=0.
6.631951834283e-04
*MATERIAL, NAME=MC_PRE_042
*ELASTIC
195000., 0.30
*DENSITY
7.85e-9
*EXPANSION, ZERO=0.
6.626934515715e-04
*MATERIAL, NAME=MC_PRE_043
*ELASTIC
195000., 0.30
*DENSITY
7.85e-9
*EXPANSION, ZERO=0.
6.622541243972e-04
*MATERIAL, NAME=MC_PRE_044
*ELASTIC
195000., 0.30
*DENSITY
7.85e-9
*EXPANSION, ZERO=0.
6.618773265246e-04
*MATERIAL, NAME=MC_PRE_045
*ELASTIC
195000., 0.30
*DENSITY
7.85e-9
*EXPANSION, ZERO=0.
6.615631640228e-04
*MATERIAL, NAME=MC_PRE_046
*ELASTIC
195000., 0.30
*DENSITY
7.85e-9
*EXPANSION, ZERO=0.
6.613117265997e-04
*MATERIAL, NAME=MC_PRE_047
*ELASTIC
195000., 0.30
*DENSITY
7.85e-9
*EXPANSION, ZERO=0.
6.611230858187e-04
*MATERIAL, NAME=MC_PRE_048
*ELASTIC
195000., 0.30
*DENSITY
7.85e-9
*EXPANSION, ZERO=0.
6.609972953764e-04
*MATERIAL, NAME=MC_PRE_049
*ELASTIC
195000., 0.30
*DENSITY
7.85e-9
*EXPANSION, ZERO=0.
6.609343911839e-04
*MATERIAL, NAME=MC_PRE_050
*ELASTIC
195000., 0.30
*DENSITY
7.85e-9
*EXPANSION, ZERO=0.
6.609343911839e-04
*MATERIAL, NAME=MC_PRE_051
*ELASTIC
195000., 0.30
*DENSITY
7.85e-9
*EXPANSION, ZERO=0.
6.609972953764e-04
*MATERIAL, NAME=MC_PRE_052
*ELASTIC
195000., 0.30
*DENSITY
7.85e-9
*EXPANSION, ZERO=0.
6.611230858187e-04
*MATERIAL, NAME=MC_PRE_053
*ELASTIC
195000., 0.30
*DENSITY
7.85e-9
*EXPANSION, ZERO=0.
6.613117265997e-04
*MATERIAL, NAME=MC_PRE_054
*ELASTIC
195000., 0.30
*DENSITY
7.85e-9
*EXPANSION, ZERO=0.
6.615631640228e-04
*MATERIAL, NAME=MC_PRE_055
*ELASTIC
195000., 0.30
*DENSITY
7.85e-9
*EXPANSION, ZERO=0.
6.618773265246e-04
*MATERIAL, NAME=MC_PRE_056
*ELASTIC
195000., 0.30
*DENSITY
7.85e-9
*EXPANSION, ZERO=0.
6.622541243972e-04
*MATERIAL, NAME=MC_PRE_057
*ELASTIC
195000., 0.30
*DENSITY
7.85e-9
*EXPANSION, ZERO=0.
6.626934515715e-04
*MATERIAL, NAME=MC_PRE_058
*ELASTIC
195000., 0.30
*DENSITY
7.85e-9
*EXPANSION, ZERO=0.
6.631951834283e-04
*MATERIAL, NAME=MC_PRE_059
*ELASTIC
195000., 0.30
*DENSITY
7.85e-9
*EXPANSION, ZERO=0.
6.637591784536e-04
*MATERIAL, NAME=MC_PRE_060
*ELASTIC
195000., 0.30
*DENSITY
7.85e-9
*EXPANSION, ZERO=0.
6.643852774088e-04
*MATERIAL, NAME=MC_PRE_061
*ELASTIC
195000., 0.30
*DENSITY
7.85e-9
*EXPANSION, ZERO=0.
6.650733061818e-04
*MATERIAL, NAME=MC_PRE_062
*ELASTIC
195000., 0.30
*DENSITY
7.85e-9
*EXPANSION, ZERO=0.
6.658230721789e-04
*MATERIAL, NAME=MC_PRE_063
*ELASTIC
195000., 0.30
*DENSITY
7.85e-9
*EXPANSION, ZERO=0.
6.666343670919e-04
*MATERIAL, NAME=MC_PRE_064
*ELASTIC
195000., 0.30
*DENSITY
7.85e-9
*EXPANSION, ZERO=0.
6.675069665723e-04
*MATERIAL, NAME=MC_PRE_065
*ELASTIC
195000., 0.30
*DENSITY
7.85e-9
*EXPANSION, ZERO=0.
6.684406295461e-04
*MATERIAL, NAME=MC_PRE_066
*ELASTIC
195000., 0.30
*DENSITY
7.85e-9
*EXPANSION, ZERO=0.
6.694351024271e-04
*MATERIAL, NAME=MC_PRE_067
*ELASTIC
195000., 0.30
*DENSITY
7.85e-9
*EXPANSION, ZERO=0.
6.704901126010e-04
*MATERIAL, NAME=MC_PRE_068
*ELASTIC
195000., 0.30
*DENSITY
7.85e-9
*EXPANSION, ZERO=0.
6.716053781092e-04
*MATERIAL, NAME=MC_PRE_069
*ELASTIC
195000., 0.30
*DENSITY
7.85e-9
*EXPANSION, ZERO=0.
6.727805947358e-04
*MATERIAL, NAME=MC_PRE_070
*ELASTIC
195000., 0.30
*DENSITY
7.85e-9
*EXPANSION, ZERO=0.
6.740154523971e-04
*MATERIAL, NAME=MC_PRE_071
*ELASTIC
195000., 0.30
*DENSITY
7.85e-9
*EXPANSION, ZERO=0.
6.753096227503e-04
*MATERIAL, NAME=MC_PRE_072
*ELASTIC
195000., 0.30
*DENSITY
7.85e-9
*EXPANSION, ZERO=0.
6.766627640580e-04
*MATERIAL, NAME=MC_PRE_073
*ELASTIC
195000., 0.30
*DENSITY
7.85e-9
*EXPANSION, ZERO=0.
6.780745275217e-04
*MATERIAL, NAME=MC_PRE_074
*ELASTIC
195000., 0.30
*DENSITY
7.85e-9
*EXPANSION, ZERO=0.
6.795445420067e-04
*MATERIAL, NAME=MC_PRE_075
*ELASTIC
195000., 0.30
*DENSITY
7.85e-9
*EXPANSION, ZERO=0.
6.810724347407e-04
*MATERIAL, NAME=MC_PRE_076
*ELASTIC
195000., 0.30
*DENSITY
7.85e-9
*EXPANSION, ZERO=0.
6.826578139812e-04
*MATERIAL, NAME=MC_PRE_077
*ELASTIC
195000., 0.30
*DENSITY
7.85e-9
*EXPANSION, ZERO=0.
6.843002834145e-04
*MATERIAL, NAME=MC_PRE_078
*ELASTIC
195000., 0.30
*DENSITY
7.85e-9
*EXPANSION, ZERO=0.
6.859994313881e-04
*MATERIAL, NAME=MC_PRE_079
*ELASTIC
195000., 0.30
*DENSITY
7.85e-9
*EXPANSION, ZERO=0.
6.877548378170e-04
*MATERIAL, NAME=MC_PRE_080
*ELASTIC
195000., 0.30
*DENSITY
7.85e-9
*EXPANSION, ZERO=0.
6.895660730552e-04
*MATERIAL, NAME=MC_PRE_081
*ELASTIC
195000., 0.30
*DENSITY
7.85e-9
*EXPANSION, ZERO=0.
6.914326964239e-04
*MATERIAL, NAME=MC_PRE_082
*ELASTIC
195000., 0.30
*DENSITY
7.85e-9
*EXPANSION, ZERO=0.
6.933542643924e-04
*MATERIAL, NAME=MC_PRE_083
*ELASTIC
195000., 0.30
*DENSITY
7.85e-9
*EXPANSION, ZERO=0.
6.953303195679e-04
*MATERIAL, NAME=MC_PRE_084
*ELASTIC
195000., 0.30
*DENSITY
7.85e-9
*EXPANSION, ZERO=0.
6.973603987622e-04
*MATERIAL, NAME=MC_PRE_085
*ELASTIC
195000., 0.30
*DENSITY
7.85e-9
*EXPANSION, ZERO=0.
6.994440294116e-04
*MATERIAL, NAME=MC_PRE_086
*ELASTIC
195000., 0.30
*DENSITY
7.85e-9
*EXPANSION, ZERO=0.
7.015807386396e-04
*MATERIAL, NAME=MC_PRE_087
*ELASTIC
195000., 0.30
*DENSITY
7.85e-9
*EXPANSION, ZERO=0.
7.037700409031e-04
*MATERIAL, NAME=MC_PRE_088
*ELASTIC
195000., 0.30
*DENSITY
7.85e-9
*EXPANSION, ZERO=0.
7.060114469380e-04
*MATERIAL, NAME=MC_PRE_089
*ELASTIC
195000., 0.30
*DENSITY
7.85e-9
*EXPANSION, ZERO=0.
7.083044597260e-04
*MATERIAL, NAME=MC_PRE_090
*ELASTIC
195000., 0.30
*DENSITY
7.85e-9
*EXPANSION, ZERO=0.
7.106485843943e-04
*MATERIAL, NAME=MC_PRE_091
*ELASTIC
195000., 0.30
*DENSITY
7.85e-9
*EXPANSION, ZERO=0.
7.106485843943e-04
*MATERIAL, NAME=MC_PRE_092
*ELASTIC
195000., 0.30
*DENSITY
7.85e-9
*EXPANSION, ZERO=0.
7.106485843943e-04
*MATERIAL, NAME=MC_PRE_093
*ELASTIC
195000., 0.30
*DENSITY
7.85e-9
*EXPANSION, ZERO=0.
7.106485843943e-04
*MATERIAL, NAME=MC_PRE_094
*ELASTIC
195000., 0.30
*DENSITY
7.85e-9
*EXPANSION, ZERO=0.
7.106485843943e-04
*MATERIAL, NAME=MC_PRE_095
*ELASTIC
195000., 0.30
*DENSITY
7.85e-9
*EXPANSION, ZERO=0.
7.106485843943e-04
*MATERIAL, NAME=MC_PRE_096
*ELASTIC
195000., 0.30
*DENSITY
7.85e-9
*EXPANSION, ZERO=0.
7.106485843943e-04
*MATERIAL, NAME=MC_PRE_097
*ELASTIC
195000., 0.30
*DENSITY
7.85e-9
*EXPANSION, ZERO=0.
7.106485843943e-04
*MATERIAL, NAME=MC_PRE_098
*ELASTIC
195000., 0.30
*DENSITY
7.85e-9
*EXPANSION, ZERO=0.
7.106485843943e-04
*MATERIAL, NAME=MC_PRE_099
*ELASTIC
195000., 0.30
*DENSITY
7.85e-9
*EXPANSION, ZERO=0.
7.106485843943e-04
*MATERIAL, NAME=MC_PRE_100
*ELASTIC
195000., 0.30
*DENSITY
7.85e-9
*EXPANSION, ZERO=0.
7.106485843943e-04
*MATERIAL, NAME=MC_PRE_101
*ELASTIC
195000., 0.30
*DENSITY
7.85e-9
*EXPANSION, ZERO=0.
7.106485843943e-04
*MATERIAL, NAME=MC_PRE_102
*ELASTIC
195000., 0.30
*DENSITY
7.85e-9
*EXPANSION, ZERO=0.
7.106485843943e-04
*MATERIAL, NAME=MC_PRE_103
*ELASTIC
195000., 0.30
*DENSITY
7.85e-9
*EXPANSION, ZERO=0.
7.106485843943e-04
*MATERIAL, NAME=MC_PRE_104
*ELASTIC
195000., 0.30
*DENSITY
7.85e-9
*EXPANSION, ZERO=0.
7.106485843943e-04
*MATERIAL, NAME=MC_PRE_105
*ELASTIC
195000., 0.30
*DENSITY
7.85e-9
*EXPANSION, ZERO=0.
7.106485843943e-04
*MATERIAL, NAME=MC_PRE_106
*ELASTIC
195000., 0.30
*DENSITY
7.85e-9
*EXPANSION, ZERO=0.
7.106485843943e-04
*MATERIAL, NAME=MC_PRE_107
*ELASTIC
195000., 0.30
*DENSITY
7.85e-9
*EXPANSION, ZERO=0.
7.106485843943e-04
*MATERIAL, NAME=MC_PRE_108
*ELASTIC
195000., 0.30
*DENSITY
7.85e-9
*EXPANSION, ZERO=0.
7.083044597260e-04
*MATERIAL, NAME=MC_PRE_109
*ELASTIC
195000., 0.30
*DENSITY
7.85e-9
*EXPANSION, ZERO=0.
7.060114469380e-04
*MATERIAL, NAME=MC_PRE_110
*ELASTIC
195000., 0.30
*DENSITY
7.85e-9
*EXPANSION, ZERO=0.
7.037700409031e-04
*MATERIAL, NAME=MC_PRE_111
*ELASTIC
195000., 0.30
*DENSITY
7.85e-9
*EXPANSION, ZERO=0.
7.015807386396e-04
*MATERIAL, NAME=MC_PRE_112
*ELASTIC
195000., 0.30
*DENSITY
7.85e-9
*EXPANSION, ZERO=0.
6.994440294116e-04
*MATERIAL, NAME=MC_PRE_113
*ELASTIC
195000., 0.30
*DENSITY
7.85e-9
*EXPANSION, ZERO=0.
6.973603987622e-04
*MATERIAL, NAME=MC_PRE_114
*ELASTIC
195000., 0.30
*DENSITY
7.85e-9
*EXPANSION, ZERO=0.
6.953303195679e-04
*MATERIAL, NAME=MC_PRE_115
*ELASTIC
195000., 0.30
*DENSITY
7.85e-9
*EXPANSION, ZERO=0.
6.933542643924e-04
*MATERIAL, NAME=MC_PRE_116
*ELASTIC
195000., 0.30
*DENSITY
7.85e-9
*EXPANSION, ZERO=0.
6.914326964239e-04
*MATERIAL, NAME=MC_PRE_117
*ELASTIC
195000., 0.30
*DENSITY
7.85e-9
*EXPANSION, ZERO=0.
6.895660730552e-04
*MATERIAL, NAME=MC_PRE_118
*ELASTIC
195000., 0.30
*DENSITY
7.85e-9
*EXPANSION, ZERO=0.
6.877548378170e-04
*MATERIAL, NAME=MC_PRE_119
*ELASTIC
195000., 0.30
*DENSITY
7.85e-9
*EXPANSION, ZERO=0.
6.859994313881e-04
*MATERIAL, NAME=MC_PRE_120
*ELASTIC
195000., 0.30
*DENSITY
7.85e-9
*EXPANSION, ZERO=0.
6.843002834145e-04
*MATERIAL, NAME=MC_PRE_121
*ELASTIC
195000., 0.30
*DENSITY
7.85e-9
*EXPANSION, ZERO=0.
6.826578139812e-04
*MATERIAL, NAME=MC_PRE_122
*ELASTIC
195000., 0.30
*DENSITY
7.85e-9
*EXPANSION, ZERO=0.
6.810724347407e-04
*MATERIAL, NAME=MC_PRE_123
*ELASTIC
195000., 0.30
*DENSITY
7.85e-9
*EXPANSION, ZERO=0.
6.795445420067e-04
*MATERIAL, NAME=MC_PRE_124
*ELASTIC
195000., 0.30
*DENSITY
7.85e-9
*EXPANSION, ZERO=0.
6.780745275217e-04
*MATERIAL, NAME=MC_PRE_125
*ELASTIC
195000., 0.30
*DENSITY
7.85e-9
*EXPANSION, ZERO=0.
6.766627640580e-04
*MATERIAL, NAME=MC_PRE_126
*ELASTIC
195000., 0.30
*DENSITY
7.85e-9
*EXPANSION, ZERO=0.
6.753096227503e-04
*MATERIAL, NAME=MC_PRE_127
*ELASTIC
195000., 0.30
*DENSITY
7.85e-9
*EXPANSION, ZERO=0.
6.740154523971e-04
*MATERIAL, NAME=MC_PRE_128
*ELASTIC
195000., 0.30
*DENSITY
7.85e-9
*EXPANSION, ZERO=0.
6.727805947358e-04
*MATERIAL, NAME=MC_PRE_129
*ELASTIC
195000., 0.30
*DENSITY
7.85e-9
*EXPANSION, ZERO=0.
6.716053781092e-04
*MATERIAL, NAME=MC_PRE_130
*ELASTIC
195000., 0.30
*DENSITY
7.85e-9
*EXPANSION, ZERO=0.
6.704901126010e-04
*MATERIAL, NAME=MC_PRE_131
*ELASTIC
195000., 0.30
*DENSITY
7.85e-9
*EXPANSION, ZERO=0.
6.694351024271e-04
*MATERIAL, NAME=MC_PRE_132
*ELASTIC
195000., 0.30
*DENSITY
7.85e-9
*EXPANSION, ZERO=0.
6.684406295461e-04
*MATERIAL, NAME=MC_PRE_133
*ELASTIC
195000., 0.30
*DENSITY
7.85e-9
*EXPANSION, ZERO=0.
6.675069665723e-04
*MATERIAL, NAME=MC_PRE_134
*ELASTIC
195000., 0.30
*DENSITY
7.85e-9
*EXPANSION, ZERO=0.
6.666343670919e-04
*MATERIAL, NAME=MC_PRE_135
*ELASTIC
195000., 0.30
*DENSITY
7.85e-9
*EXPANSION, ZERO=0.
6.658230721789e-04
*MATERIAL, NAME=MC_PRE_136
*ELASTIC
195000., 0.30
*DENSITY
7.85e-9
*EXPANSION, ZERO=0.
6.650733061818e-04
*MATERIAL, NAME=MC_PRE_137
*ELASTIC
195000., 0.30
*DENSITY
7.85e-9
*EXPANSION, ZERO=0.
6.643852774088e-04
*MATERIAL, NAME=MC_PRE_138
*ELASTIC
195000., 0.30
*DENSITY
7.85e-9
*EXPANSION, ZERO=0.
6.637591784536e-04
*MATERIAL, NAME=MC_PRE_139
*ELASTIC
195000., 0.30
*DENSITY
7.85e-9
*EXPANSION, ZERO=0.
6.631951834283e-04
*MATERIAL, NAME=MC_PRE_140
*ELASTIC
195000., 0.30
*DENSITY
7.85e-9
*EXPANSION, ZERO=0.
6.626934515715e-04
*MATERIAL, NAME=MC_PRE_141
*ELASTIC
195000., 0.30
*DENSITY
7.85e-9
*EXPANSION, ZERO=0.
6.622541243972e-04
*MATERIAL, NAME=MC_PRE_142
*ELASTIC
195000., 0.30
*DENSITY
7.85e-9
*EXPANSION, ZERO=0.
6.618773265246e-04
*MATERIAL, NAME=MC_PRE_143
*ELASTIC
195000., 0.30
*DENSITY
7.85e-9
*EXPANSION, ZERO=0.
6.615631640228e-04
*MATERIAL, NAME=MC_PRE_144
*ELASTIC
195000., 0.30
*DENSITY
7.85e-9
*EXPANSION, ZERO=0.
6.613117265997e-04
*MATERIAL, NAME=MC_PRE_145
*ELASTIC
195000., 0.30
*DENSITY
7.85e-9
*EXPANSION, ZERO=0.
6.611230858187e-04
*MATERIAL, NAME=MC_PRE_146
*ELASTIC
195000., 0.30
*DENSITY
7.85e-9
*EXPANSION, ZERO=0.
6.609972953764e-04
*MATERIAL, NAME=MC_PRE_147
*ELASTIC
195000., 0.30
*DENSITY
7.85e-9
*EXPANSION, ZERO=0.
6.609343911839e-04
*MATERIAL, NAME=MC_PRE_148
*ELASTIC
195000., 0.30
*DENSITY
7.85e-9
*EXPANSION, ZERO=0.
6.609343911839e-04
*MATERIAL, NAME=MC_PRE_149
*ELASTIC
195000., 0.30
*DENSITY
7.85e-9
*EXPANSION, ZERO=0.
6.609972953764e-04
*MATERIAL, NAME=MC_PRE_150
*ELASTIC
195000., 0.30
*DENSITY
7.85e-9
*EXPANSION, ZERO=0.
6.611230858187e-04
*MATERIAL, NAME=MC_PRE_151
*ELASTIC
195000., 0.30
*DENSITY
7.85e-9
*EXPANSION, ZERO=0.
6.613117265997e-04
*MATERIAL, NAME=MC_PRE_152
*ELASTIC
195000., 0.30
*DENSITY
7.85e-9
*EXPANSION, ZERO=0.
6.615631640228e-04
*MATERIAL, NAME=MC_PRE_153
*ELASTIC
195000., 0.30
*DENSITY
7.85e-9
*EXPANSION, ZERO=0.
6.618773265246e-04
*MATERIAL, NAME=MC_PRE_154
*ELASTIC
195000., 0.30
*DENSITY
7.85e-9
*EXPANSION, ZERO=0.
6.622541243972e-04
*MATERIAL, NAME=MC_PRE_155
*ELASTIC
195000., 0.30
*DENSITY
7.85e-9
*EXPANSION, ZERO=0.
6.626934515715e-04
*MATERIAL, NAME=MC_PRE_156
*ELASTIC
195000., 0.30
*DENSITY
7.85e-9
*EXPANSION, ZERO=0.
6.631951834283e-04
*MATERIAL, NAME=MC_PRE_157
*ELASTIC
195000., 0.30
*DENSITY
7.85e-9
*EXPANSION, ZERO=0.
6.637591784536e-04
*MATERIAL, NAME=MC_PRE_158
*ELASTIC
195000., 0.30
*DENSITY
7.85e-9
*EXPANSION, ZERO=0.
6.643852774088e-04
*MATERIAL, NAME=MC_PRE_159
*ELASTIC
195000., 0.30
*DENSITY
7.85e-9
*EXPANSION, ZERO=0.
6.650733061818e-04
*MATERIAL, NAME=MC_PRE_160
*ELASTIC
195000., 0.30
*DENSITY
7.85e-9
*EXPANSION, ZERO=0.
6.658230721789e-04
*MATERIAL, NAME=MC_PRE_161
*ELASTIC
195000., 0.30
*DENSITY
7.85e-9
*EXPANSION, ZERO=0.
6.666343670919e-04
*MATERIAL, NAME=MC_PRE_162
*ELASTIC
195000., 0.30
*DENSITY
7.85e-9
*EXPANSION, ZERO=0.
6.675069665723e-04
*MATERIAL, NAME=MC_PRE_163
*ELASTIC
195000., 0.30
*DENSITY
7.85e-9
*EXPANSION, ZERO=0.
6.684406295461e-04
*MATERIAL, NAME=MC_PRE_164
*ELASTIC
195000., 0.30
*DENSITY
7.85e-9
*EXPANSION, ZERO=0.
6.694351024271e-04
*MATERIAL, NAME=MC_PRE_165
*ELASTIC
195000., 0.30
*DENSITY
7.85e-9
*EXPANSION, ZERO=0.
6.704901126010e-04
*MATERIAL, NAME=MC_PRE_166
*ELASTIC
195000., 0.30
*DENSITY
7.85e-9
*EXPANSION, ZERO=0.
6.716053781092e-04
*MATERIAL, NAME=MC_PRE_167
*ELASTIC
195000., 0.30
*DENSITY
7.85e-9
*EXPANSION, ZERO=0.
6.727805947358e-04
*MATERIAL, NAME=MC_PRE_168
*ELASTIC
195000., 0.30
*DENSITY
7.85e-9
*EXPANSION, ZERO=0.
6.740154523971e-04
*MATERIAL, NAME=MC_PRE_169
*ELASTIC
195000., 0.30
*DENSITY
7.85e-9
*EXPANSION, ZERO=0.
6.753096227503e-04
*MATERIAL, NAME=MC_PRE_170
*ELASTIC
195000., 0.30
*DENSITY
7.85e-9
*EXPANSION, ZERO=0.
6.766627640580e-04
*MATERIAL, NAME=MC_PRE_171
*ELASTIC
195000., 0.30
*DENSITY
7.85e-9
*EXPANSION, ZERO=0.
6.780745275217e-04
*MATERIAL, NAME=MC_PRE_172
*ELASTIC
195000., 0.30
*DENSITY
7.85e-9
*EXPANSION, ZERO=0.
6.795445420067e-04
*MATERIAL, NAME=MC_PRE_173
*ELASTIC
195000., 0.30
*DENSITY
7.85e-9
*EXPANSION, ZERO=0.
6.810724347407e-04
*MATERIAL, NAME=MC_PRE_174
*ELASTIC
195000., 0.30
*DENSITY
7.85e-9
*EXPANSION, ZERO=0.
6.826578139812e-04
*MATERIAL, NAME=MC_PRE_175
*ELASTIC
195000., 0.30
*DENSITY
7.85e-9
*EXPANSION, ZERO=0.
6.843002834145e-04
*MATERIAL, NAME=MC_PRE_176
*ELASTIC
195000., 0.30
*DENSITY
7.85e-9
*EXPANSION, ZERO=0.
6.859994313881e-04
*MATERIAL, NAME=MC_PRE_177
*ELASTIC
195000., 0.30
*DENSITY
7.85e-9
*EXPANSION, ZERO=0.
6.877548378170e-04
*MATERIAL, NAME=MC_PRE_178
*ELASTIC
195000., 0.30
*DENSITY
7.85e-9
*EXPANSION, ZERO=0.
6.895660730552e-04
*MATERIAL, NAME=MC_PRE_179
*ELASTIC
195000., 0.30
*DENSITY
7.85e-9
*EXPANSION, ZERO=0.
6.914326964239e-04
*MATERIAL, NAME=MC_PRE_180
*ELASTIC
195000., 0.30
*DENSITY
7.85e-9
*EXPANSION, ZERO=0.
6.933542643924e-04
*MATERIAL, NAME=MC_PRE_181
*ELASTIC
195000., 0.30
*DENSITY
7.85e-9
*EXPANSION, ZERO=0.
6.953303195679e-04
*MATERIAL, NAME=MC_PRE_182
*ELASTIC
195000., 0.30
*DENSITY
7.85e-9
*EXPANSION, ZERO=0.
6.973603987622e-04
*MATERIAL, NAME=MC_PRE_183
*ELASTIC
195000., 0.30
*DENSITY
7.85e-9
*EXPANSION, ZERO=0.
6.994440294116e-04
*MATERIAL, NAME=MC_PRE_184
*ELASTIC
195000., 0.30
*DENSITY
7.85e-9
*EXPANSION, ZERO=0.
7.015807386396e-04
*MATERIAL, NAME=MC_PRE_185
*ELASTIC
195000., 0.30
*DENSITY
7.85e-9
*EXPANSION, ZERO=0.
7.037700409031e-04
*MATERIAL, NAME=MC_PRE_186
*ELASTIC
195000., 0.30
*DENSITY
7.85e-9
*EXPANSION, ZERO=0.
7.060114469380e-04
*MATERIAL, NAME=MC_PRE_187
*ELASTIC
195000., 0.30
*DENSITY
7.85e-9
*EXPANSION, ZERO=0.
7.083044597260e-04
*MATERIAL, NAME=MC_PRE_188
*ELASTIC
195000., 0.30
*DENSITY
7.85e-9
*EXPANSION, ZERO=0.
7.106485843943e-04
*MATERIAL, NAME=MC_PRE_189
*ELASTIC
195000., 0.30
*DENSITY
7.85e-9
*EXPANSION, ZERO=0.
7.106485843943e-04
*MATERIAL, NAME=MC_PRE_190
*ELASTIC
195000., 0.30
*DENSITY
7.85e-9
*EXPANSION, ZERO=0.
7.106485843943e-04
*MATERIAL, NAME=MC_PRE_191
*ELASTIC
195000., 0.30
*DENSITY
7.85e-9
*EXPANSION, ZERO=0.
7.106485843943e-04
*MATERIAL, NAME=MC_PRE_192
*ELASTIC
195000., 0.30
*DENSITY
7.85e-9
*EXPANSION, ZERO=0.
7.106485843943e-04
*MATERIAL, NAME=MC_PRE_193
*ELASTIC
195000., 0.30
*DENSITY
7.85e-9
*EXPANSION, ZERO=0.
7.106485843943e-04
*MATERIAL, NAME=MC_PRE_194
*ELASTIC
195000., 0.30
*DENSITY
7.85e-9
*EXPANSION, ZERO=0.
7.106485843943e-04
*MATERIAL, NAME=MC_PRE_195
*ELASTIC
195000., 0.30
*DENSITY
7.85e-9
*EXPANSION, ZERO=0.
7.106485843943e-04
*MATERIAL, NAME=MC_PRE_196
*ELASTIC
195000., 0.30
*DENSITY
7.85e-9
*EXPANSION, ZERO=0.
7.106485843943e-04
*MATERIAL, NAME=HG_PRE_01
*ELASTIC
200000., 0.30
*DENSITY
7.85e-9
*EXPANSION, ZERO=0.
1.642383127971e-04
*MATERIAL, NAME=HG_PRE_02
*ELASTIC
200000., 0.30
*DENSITY
7.85e-9
*EXPANSION, ZERO=0.
1.290592663524e-04
*MATERIAL, NAME=HG_PRE_03
*ELASTIC
200000., 0.30
*DENSITY
7.85e-9
*EXPANSION, ZERO=0.
1.288817711511e-04
*MATERIAL, NAME=HG_PRE_04
*ELASTIC
200000., 0.30
*DENSITY
7.85e-9
*EXPANSION, ZERO=0.
1.287211802550e-04
*MATERIAL, NAME=HG_PRE_05
*ELASTIC
200000., 0.30
*DENSITY
7.85e-9
*EXPANSION, ZERO=0.
1.285774936642e-04
*MATERIAL, NAME=HG_PRE_06
*ELASTIC
200000., 0.30
*DENSITY
7.85e-9
*EXPANSION, ZERO=0.
1.284507113768e-04
*MATERIAL, NAME=HG_PRE_07
*ELASTIC
200000., 0.30
*DENSITY
7.85e-9
*EXPANSION, ZERO=0.
1.283408333945e-04
*MATERIAL, NAME=HG_PRE_08
*ELASTIC
200000., 0.30
*DENSITY
7.85e-9
*EXPANSION, ZERO=0.
1.282478597195e-04
*MATERIAL, NAME=HG_PRE_09
*ELASTIC
200000., 0.30
*DENSITY
7.85e-9
*EXPANSION, ZERO=0.
1.281717903459e-04
*MATERIAL, NAME=HG_PRE_10
*ELASTIC
200000., 0.30
*DENSITY
7.85e-9
*EXPANSION, ZERO=0.
1.281126252794e-04
*MATERIAL, NAME=HG_PRE_11
*ELASTIC
200000., 0.30
*DENSITY
7.85e-9
*EXPANSION, ZERO=0.
1.280703645182e-04
*MATERIAL, NAME=HG_PRE_12
*ELASTIC
200000., 0.30
*DENSITY
7.85e-9
*EXPANSION, ZERO=0.
1.280450080601e-04
*MATERIAL, NAME=HG_PRE_13
*ELASTIC
200000., 0.30
*DENSITY
7.85e-9
*EXPANSION, ZERO=0.
1.280365559077e-04
*MATERIAL, NAME=HG_PRE_14
*ELASTIC
200000., 0.30
*DENSITY
7.85e-9
*EXPANSION, ZERO=0.
1.280450080601e-04
*MATERIAL, NAME=HG_PRE_15
*ELASTIC
200000., 0.30
*DENSITY
7.85e-9
*EXPANSION, ZERO=0.
1.280703645182e-04
*MATERIAL, NAME=HG_PRE_16
*ELASTIC
200000., 0.30
*DENSITY
7.85e-9
*EXPANSION, ZERO=0.
1.281126252794e-04
*MATERIAL, NAME=HG_PRE_17
*ELASTIC
200000., 0.30
*DENSITY
7.85e-9
*EXPANSION, ZERO=0.
1.281717903459e-04
*MATERIAL, NAME=HG_PRE_18
*ELASTIC
200000., 0.30
*DENSITY
7.85e-9
*EXPANSION, ZERO=0.
1.282478597195e-04
*MATERIAL, NAME=HG_PRE_19
*ELASTIC
200000., 0.30
*DENSITY
7.85e-9
*EXPANSION, ZERO=0.
1.283408333945e-04
*MATERIAL, NAME=HG_PRE_20
*ELASTIC
200000., 0.30
*DENSITY
7.85e-9
*EXPANSION, ZERO=0.
1.284507113768e-04
*MATERIAL, NAME=HG_PRE_21
*ELASTIC
200000., 0.30
*DENSITY
7.85e-9
*EXPANSION, ZERO=0.
1.285774936642e-04
*MATERIAL, NAME=HG_PRE_22
*ELASTIC
200000., 0.30
*DENSITY
7.85e-9
*EXPANSION, ZERO=0.
1.287211802550e-04
*MATERIAL, NAME=HG_PRE_23
*ELASTIC
200000., 0.30
*DENSITY
7.85e-9
*EXPANSION, ZERO=0.
1.288817711511e-04
*MATERIAL, NAME=HG_PRE_24
*ELASTIC
200000., 0.30
*DENSITY
7.85e-9
*EXPANSION, ZERO=0.
1.290592663524e-04
*MATERIAL, NAME=HG_PRE_25
*ELASTIC
200000., 0.30
*DENSITY
7.85e-9
*EXPANSION, ZERO=0.
1.642383127971e-04
*MATERIAL, NAME=HANGER_BAR_SCREEN
*ELASTIC
200000., 0.30
*DENSITY
7.85e-9
*MATERIAL, NAME=WIND_ROPE_SCREEN
*ELASTIC
100000., 0.30
*DENSITY
7.85e-9
** SECTIONS
*SHELL SECTION, ELSET=DECK_SHELLS, MATERIAL=DECK_PANEL_EQUIV_SCREEN, OFFSET=-0.5
50
*BEAM SECTION, ELSET=LONG_GIRDERS, MATERIAL=STEEL_Q235_SCREEN, SECTION=RECT
604.64126, 35.4821965
0., 0., 1.
*BEAM SECTION, ELSET=CROSSBEAMS, MATERIAL=STEEL_Q235_SCREEN, SECTION=RECT
420, 41.4123032
0., 0., 1.
*BEAM SECTION, ELSET=TOWER_COLUMNS, MATERIAL=CONCRETE_C30_SCREEN, SECTION=RECT
1500., 1000.
1., 0., 0.
*BEAM SECTION, ELSET=TOWER_TOP_BEAMS, MATERIAL=CONCRETE_C30_SCREEN, SECTION=RECT
500., 1500.
0., 0., 1.
*BEAM SECTION, ELSET=WIND_ATTACH_LINKS, MATERIAL=STEEL_Q235_SCREEN, SECTION=RECT
160., 160.
1., 0., 0.
*ELSET, ELSET=MCSEG_001
825
*ELSET, ELSET=MCSEG_002
826
*ELSET, ELSET=MCSEG_003
827
*ELSET, ELSET=MCSEG_004
828
*ELSET, ELSET=MCSEG_005
829
*ELSET, ELSET=MCSEG_006
830
*ELSET, ELSET=MCSEG_007
831
*ELSET, ELSET=MCSEG_008
832
*ELSET, ELSET=MCSEG_009
833
*ELSET, ELSET=MCSEG_010
834
*ELSET, ELSET=MCSEG_011
835
*ELSET, ELSET=MCSEG_012
836
*ELSET, ELSET=MCSEG_013
837
*ELSET, ELSET=MCSEG_014
838
*ELSET, ELSET=MCSEG_015
839
*ELSET, ELSET=MCSEG_016
840
*ELSET, ELSET=MCSEG_017
841
*ELSET, ELSET=MCSEG_018
842
*ELSET, ELSET=MCSEG_019
843
*ELSET, ELSET=MCSEG_020
844
*ELSET, ELSET=MCSEG_021
845
*ELSET, ELSET=MCSEG_022
846
*ELSET, ELSET=MCSEG_023
847
*ELSET, ELSET=MCSEG_024
848
*ELSET, ELSET=MCSEG_025
849
*ELSET, ELSET=MCSEG_026
850
*ELSET, ELSET=MCSEG_027
851
*ELSET, ELSET=MCSEG_028
852
*ELSET, ELSET=MCSEG_029
853
*ELSET, ELSET=MCSEG_030
854
*ELSET, ELSET=MCSEG_031
855
*ELSET, ELSET=MCSEG_032
856
*ELSET, ELSET=MCSEG_033
857
*ELSET, ELSET=MCSEG_034
858
*ELSET, ELSET=MCSEG_035
859
*ELSET, ELSET=MCSEG_036
860
*ELSET, ELSET=MCSEG_037
861
*ELSET, ELSET=MCSEG_038
862
*ELSET, ELSET=MCSEG_039
863
*ELSET, ELSET=MCSEG_040
864
*ELSET, ELSET=MCSEG_041
865
*ELSET, ELSET=MCSEG_042
866
*ELSET, ELSET=MCSEG_043
867
*ELSET, ELSET=MCSEG_044
868
*ELSET, ELSET=MCSEG_045
869
*ELSET, ELSET=MCSEG_046
870
*ELSET, ELSET=MCSEG_047
871
*ELSET, ELSET=MCSEG_048
872
*ELSET, ELSET=MCSEG_049
873
*ELSET, ELSET=MCSEG_050
874
*ELSET, ELSET=MCSEG_051
875
*ELSET, ELSET=MCSEG_052
876
*ELSET, ELSET=MCSEG_053
877
*ELSET, ELSET=MCSEG_054
878
*ELSET, ELSET=MCSEG_055
879
*ELSET, ELSET=MCSEG_056
880
*ELSET, ELSET=MCSEG_057
881
*ELSET, ELSET=MCSEG_058
882
*ELSET, ELSET=MCSEG_059
883
*ELSET, ELSET=MCSEG_060
884
*ELSET, ELSET=MCSEG_061
885
*ELSET, ELSET=MCSEG_062
886
*ELSET, ELSET=MCSEG_063
887
*ELSET, ELSET=MCSEG_064
888
*ELSET, ELSET=MCSEG_065
889
*ELSET, ELSET=MCSEG_066
890
*ELSET, ELSET=MCSEG_067
891
*ELSET, ELSET=MCSEG_068
892
*ELSET, ELSET=MCSEG_069
893
*ELSET, ELSET=MCSEG_070
894
*ELSET, ELSET=MCSEG_071
895
*ELSET, ELSET=MCSEG_072
896
*ELSET, ELSET=MCSEG_073
897
*ELSET, ELSET=MCSEG_074
898
*ELSET, ELSET=MCSEG_075
899
*ELSET, ELSET=MCSEG_076
900
*ELSET, ELSET=MCSEG_077
901
*ELSET, ELSET=MCSEG_078
902
*ELSET, ELSET=MCSEG_079
903
*ELSET, ELSET=MCSEG_080
904
*ELSET, ELSET=MCSEG_081
905
*ELSET, ELSET=MCSEG_082
906
*ELSET, ELSET=MCSEG_083
907
*ELSET, ELSET=MCSEG_084
908
*ELSET, ELSET=MCSEG_085
909
*ELSET, ELSET=MCSEG_086
910
*ELSET, ELSET=MCSEG_087
911
*ELSET, ELSET=MCSEG_088
912
*ELSET, ELSET=MCSEG_089
913
*ELSET, ELSET=MCSEG_090
914
*ELSET, ELSET=MCSEG_091
915
*ELSET, ELSET=MCSEG_092
916
*ELSET, ELSET=MCSEG_093
917
*ELSET, ELSET=MCSEG_094
918
*ELSET, ELSET=MCSEG_095
919
*ELSET, ELSET=MCSEG_096
920
*ELSET, ELSET=MCSEG_097
921
*ELSET, ELSET=MCSEG_098
922
*ELSET, ELSET=MCSEG_099
923
*ELSET, ELSET=MCSEG_100
924
*ELSET, ELSET=MCSEG_101
925
*ELSET, ELSET=MCSEG_102
926
*ELSET, ELSET=MCSEG_103
927
*ELSET, ELSET=MCSEG_104
928
*ELSET, ELSET=MCSEG_105
929
*ELSET, ELSET=MCSEG_106
930
*ELSET, ELSET=MCSEG_107
931
*ELSET, ELSET=MCSEG_108
932
*ELSET, ELSET=MCSEG_109
933
*ELSET, ELSET=MCSEG_110
934
*ELSET, ELSET=MCSEG_111
935
*ELSET, ELSET=MCSEG_112
936
*ELSET, ELSET=MCSEG_113
937
*ELSET, ELSET=MCSEG_114
938
*ELSET, ELSET=MCSEG_115
939
*ELSET, ELSET=MCSEG_116
940
*ELSET, ELSET=MCSEG_117
941
*ELSET, ELSET=MCSEG_118
942
*ELSET, ELSET=MCSEG_119
943
*ELSET, ELSET=MCSEG_120
944
*ELSET, ELSET=MCSEG_121
945
*ELSET, ELSET=MCSEG_122
946
*ELSET, ELSET=MCSEG_123
947
*ELSET, ELSET=MCSEG_124
948
*ELSET, ELSET=MCSEG_125
949
*ELSET, ELSET=MCSEG_126
950
*ELSET, ELSET=MCSEG_127
951
*ELSET, ELSET=MCSEG_128
952
*ELSET, ELSET=MCSEG_129
953
*ELSET, ELSET=MCSEG_130
954
*ELSET, ELSET=MCSEG_131
955
*ELSET, ELSET=MCSEG_132
956
*ELSET, ELSET=MCSEG_133
957
*ELSET, ELSET=MCSEG_134
958
*ELSET, ELSET=MCSEG_135
959
*ELSET, ELSET=MCSEG_136
960
*ELSET, ELSET=MCSEG_137
961
*ELSET, ELSET=MCSEG_138
962
*ELSET, ELSET=MCSEG_139
963
*ELSET, ELSET=MCSEG_140
964
*ELSET, ELSET=MCSEG_141
965
*ELSET, ELSET=MCSEG_142
966
*ELSET, ELSET=MCSEG_143
967
*ELSET, ELSET=MCSEG_144
968
*ELSET, ELSET=MCSEG_145
969
*ELSET, ELSET=MCSEG_146
970
*ELSET, ELSET=MCSEG_147
971
*ELSET, ELSET=MCSEG_148
972
*ELSET, ELSET=MCSEG_149
973
*ELSET, ELSET=MCSEG_150
974
*ELSET, ELSET=MCSEG_151
975
*ELSET, ELSET=MCSEG_152
976
*ELSET, ELSET=MCSEG_153
977
*ELSET, ELSET=MCSEG_154
978
*ELSET, ELSET=MCSEG_155
979
*ELSET, ELSET=MCSEG_156
980
*ELSET, ELSET=MCSEG_157
981
*ELSET, ELSET=MCSEG_158
982
*ELSET, ELSET=MCSEG_159
983
*ELSET, ELSET=MCSEG_160
984
*ELSET, ELSET=MCSEG_161
985
*ELSET, ELSET=MCSEG_162
986
*ELSET, ELSET=MCSEG_163
987
*ELSET, ELSET=MCSEG_164
988
*ELSET, ELSET=MCSEG_165
989
*ELSET, ELSET=MCSEG_166
990
*ELSET, ELSET=MCSEG_167
991
*ELSET, ELSET=MCSEG_168
992
*ELSET, ELSET=MCSEG_169
993
*ELSET, ELSET=MCSEG_170
994
*ELSET, ELSET=MCSEG_171
995
*ELSET, ELSET=MCSEG_172
996
*ELSET, ELSET=MCSEG_173
997
*ELSET, ELSET=MCSEG_174
998
*ELSET, ELSET=MCSEG_175
999
*ELSET, ELSET=MCSEG_176
1000
*ELSET, ELSET=MCSEG_177
1001
*ELSET, ELSET=MCSEG_178
1002
*ELSET, ELSET=MCSEG_179
1003
*ELSET, ELSET=MCSEG_180
1004
*ELSET, ELSET=MCSEG_181
1005
*ELSET, ELSET=MCSEG_182
1006
*ELSET, ELSET=MCSEG_183
1007
*ELSET, ELSET=MCSEG_184
1008
*ELSET, ELSET=MCSEG_185
1009
*ELSET, ELSET=MCSEG_186
1010
*ELSET, ELSET=MCSEG_187
1011
*ELSET, ELSET=MCSEG_188
1012
*ELSET, ELSET=MCSEG_189
1013
*ELSET, ELSET=MCSEG_190
1014
*ELSET, ELSET=MCSEG_191
1015
*ELSET, ELSET=MCSEG_192
1016
*ELSET, ELSET=MCSEG_193
1017
*ELSET, ELSET=MCSEG_194
1018
*ELSET, ELSET=MCSEG_195
1019
*ELSET, ELSET=MCSEG_196
1020
*ELSET, ELSET=HGSTA_01
1021, 1046
*ELSET, ELSET=HGSTA_02
1022, 1047
*ELSET, ELSET=HGSTA_03
1023, 1048
*ELSET, ELSET=HGSTA_04
1024, 1049
*ELSET, ELSET=HGSTA_05
1025, 1050
*ELSET, ELSET=HGSTA_06
1026, 1051
*ELSET, ELSET=HGSTA_07
1027, 1052
*ELSET, ELSET=HGSTA_08
1028, 1053
*ELSET, ELSET=HGSTA_09
1029, 1054
*ELSET, ELSET=HGSTA_10
1030, 1055
*ELSET, ELSET=HGSTA_11
1031, 1056
*ELSET, ELSET=HGSTA_12
1032, 1057
*ELSET, ELSET=HGSTA_13
1033, 1058
*ELSET, ELSET=HGSTA_14
1034, 1059
*ELSET, ELSET=HGSTA_15
1035, 1060
*ELSET, ELSET=HGSTA_16
1036, 1061
*ELSET, ELSET=HGSTA_17
1037, 1062
*ELSET, ELSET=HGSTA_18
1038, 1063
*ELSET, ELSET=HGSTA_19
1039, 1064
*ELSET, ELSET=HGSTA_20
1040, 1065
*ELSET, ELSET=HGSTA_21
1041, 1066
*ELSET, ELSET=HGSTA_22
1042, 1067
*ELSET, ELSET=HGSTA_23
1043, 1068
*ELSET, ELSET=HGSTA_24
1044, 1069
*ELSET, ELSET=HGSTA_25
1045, 1070
*BEAM SECTION, ELSET=MCSEG_001, MATERIAL=MC_PRE_001, SECTION=RECT
74.5432224, 74.5432224
0., 1., 0.
*BEAM SECTION, ELSET=MCSEG_002, MATERIAL=MC_PRE_002, SECTION=RECT
74.5432224, 74.5432224
0., 1., 0.
*BEAM SECTION, ELSET=MCSEG_003, MATERIAL=MC_PRE_003, SECTION=RECT
74.5432224, 74.5432224
0., 1., 0.
*BEAM SECTION, ELSET=MCSEG_004, MATERIAL=MC_PRE_004, SECTION=RECT
74.5432224, 74.5432224
0., 1., 0.
*BEAM SECTION, ELSET=MCSEG_005, MATERIAL=MC_PRE_005, SECTION=RECT
74.5432224, 74.5432224
0., 1., 0.
*BEAM SECTION, ELSET=MCSEG_006, MATERIAL=MC_PRE_006, SECTION=RECT
74.5432224, 74.5432224
0., 1., 0.
*BEAM SECTION, ELSET=MCSEG_007, MATERIAL=MC_PRE_007, SECTION=RECT
74.5432224, 74.5432224
0., 1., 0.
*BEAM SECTION, ELSET=MCSEG_008, MATERIAL=MC_PRE_008, SECTION=RECT
74.5432224, 74.5432224
0., 1., 0.
*BEAM SECTION, ELSET=MCSEG_009, MATERIAL=MC_PRE_009, SECTION=RECT
74.5432224, 74.5432224
0., 1., 0.
*BEAM SECTION, ELSET=MCSEG_010, MATERIAL=MC_PRE_010, SECTION=RECT
74.5432224, 74.5432224
0., 1., 0.
*BEAM SECTION, ELSET=MCSEG_011, MATERIAL=MC_PRE_011, SECTION=RECT
74.5432224, 74.5432224
0., 1., 0.
*BEAM SECTION, ELSET=MCSEG_012, MATERIAL=MC_PRE_012, SECTION=RECT
74.5432224, 74.5432224
0., 1., 0.
*BEAM SECTION, ELSET=MCSEG_013, MATERIAL=MC_PRE_013, SECTION=RECT
74.5432224, 74.5432224
0., 1., 0.
*BEAM SECTION, ELSET=MCSEG_014, MATERIAL=MC_PRE_014, SECTION=RECT
74.5432224, 74.5432224
0., 1., 0.
*BEAM SECTION, ELSET=MCSEG_015, MATERIAL=MC_PRE_015, SECTION=RECT
74.5432224, 74.5432224
0., 1., 0.
*BEAM SECTION, ELSET=MCSEG_016, MATERIAL=MC_PRE_016, SECTION=RECT
74.5432224, 74.5432224
0., 1., 0.
*BEAM SECTION, ELSET=MCSEG_017, MATERIAL=MC_PRE_017, SECTION=RECT
74.5432224, 74.5432224
0., 1., 0.
*BEAM SECTION, ELSET=MCSEG_018, MATERIAL=MC_PRE_018, SECTION=RECT
74.5432224, 74.5432224
0., 1., 0.
*BEAM SECTION, ELSET=MCSEG_019, MATERIAL=MC_PRE_019, SECTION=RECT
74.5432224, 74.5432224
0., 1., 0.
*BEAM SECTION, ELSET=MCSEG_020, MATERIAL=MC_PRE_020, SECTION=RECT
74.5432224, 74.5432224
0., 1., 0.
*BEAM SECTION, ELSET=MCSEG_021, MATERIAL=MC_PRE_021, SECTION=RECT
74.5432224, 74.5432224
0., 1., 0.
*BEAM SECTION, ELSET=MCSEG_022, MATERIAL=MC_PRE_022, SECTION=RECT
74.5432224, 74.5432224
0., 1., 0.
*BEAM SECTION, ELSET=MCSEG_023, MATERIAL=MC_PRE_023, SECTION=RECT
74.5432224, 74.5432224
0., 1., 0.
*BEAM SECTION, ELSET=MCSEG_024, MATERIAL=MC_PRE_024, SECTION=RECT
74.5432224, 74.5432224
0., 1., 0.
*BEAM SECTION, ELSET=MCSEG_025, MATERIAL=MC_PRE_025, SECTION=RECT
74.5432224, 74.5432224
0., 1., 0.
*BEAM SECTION, ELSET=MCSEG_026, MATERIAL=MC_PRE_026, SECTION=RECT
74.5432224, 74.5432224
0., 1., 0.
*BEAM SECTION, ELSET=MCSEG_027, MATERIAL=MC_PRE_027, SECTION=RECT
74.5432224, 74.5432224
0., 1., 0.
*BEAM SECTION, ELSET=MCSEG_028, MATERIAL=MC_PRE_028, SECTION=RECT
74.5432224, 74.5432224
0., 1., 0.
*BEAM SECTION, ELSET=MCSEG_029, MATERIAL=MC_PRE_029, SECTION=RECT
74.5432224, 74.5432224
0., 1., 0.
*BEAM SECTION, ELSET=MCSEG_030, MATERIAL=MC_PRE_030, SECTION=RECT
74.5432224, 74.5432224
0., 1., 0.
*BEAM SECTION, ELSET=MCSEG_031, MATERIAL=MC_PRE_031, SECTION=RECT
74.5432224, 74.5432224
0., 1., 0.
*BEAM SECTION, ELSET=MCSEG_032, MATERIAL=MC_PRE_032, SECTION=RECT
74.5432224, 74.5432224
0., 1., 0.
*BEAM SECTION, ELSET=MCSEG_033, MATERIAL=MC_PRE_033, SECTION=RECT
74.5432224, 74.5432224
0., 1., 0.
*BEAM SECTION, ELSET=MCSEG_034, MATERIAL=MC_PRE_034, SECTION=RECT
74.5432224, 74.5432224
0., 1., 0.
*BEAM SECTION, ELSET=MCSEG_035, MATERIAL=MC_PRE_035, SECTION=RECT
74.5432224, 74.5432224
0., 1., 0.
*BEAM SECTION, ELSET=MCSEG_036, MATERIAL=MC_PRE_036, SECTION=RECT
74.5432224, 74.5432224
0., 1., 0.
*BEAM SECTION, ELSET=MCSEG_037, MATERIAL=MC_PRE_037, SECTION=RECT
74.5432224, 74.5432224
0., 1., 0.
*BEAM SECTION, ELSET=MCSEG_038, MATERIAL=MC_PRE_038, SECTION=RECT
74.5432224, 74.5432224
0., 1., 0.
*BEAM SECTION, ELSET=MCSEG_039, MATERIAL=MC_PRE_039, SECTION=RECT
74.5432224, 74.5432224
0., 1., 0.
*BEAM SECTION, ELSET=MCSEG_040, MATERIAL=MC_PRE_040, SECTION=RECT
74.5432224, 74.5432224
0., 1., 0.
*BEAM SECTION, ELSET=MCSEG_041, MATERIAL=MC_PRE_041, SECTION=RECT
74.5432224, 74.5432224
0., 1., 0.
*BEAM SECTION, ELSET=MCSEG_042, MATERIAL=MC_PRE_042, SECTION=RECT
74.5432224, 74.5432224
0., 1., 0.
*BEAM SECTION, ELSET=MCSEG_043, MATERIAL=MC_PRE_043, SECTION=RECT
74.5432224, 74.5432224
0., 1., 0.
*BEAM SECTION, ELSET=MCSEG_044, MATERIAL=MC_PRE_044, SECTION=RECT
74.5432224, 74.5432224
0., 1., 0.
*BEAM SECTION, ELSET=MCSEG_045, MATERIAL=MC_PRE_045, SECTION=RECT
74.5432224, 74.5432224
0., 1., 0.
*BEAM SECTION, ELSET=MCSEG_046, MATERIAL=MC_PRE_046, SECTION=RECT
74.5432224, 74.5432224
0., 1., 0.
*BEAM SECTION, ELSET=MCSEG_047, MATERIAL=MC_PRE_047, SECTION=RECT
74.5432224, 74.5432224
0., 1., 0.
*BEAM SECTION, ELSET=MCSEG_048, MATERIAL=MC_PRE_048, SECTION=RECT
74.5432224, 74.5432224
0., 1., 0.
*BEAM SECTION, ELSET=MCSEG_049, MATERIAL=MC_PRE_049, SECTION=RECT
74.5432224, 74.5432224
0., 1., 0.
*BEAM SECTION, ELSET=MCSEG_050, MATERIAL=MC_PRE_050, SECTION=RECT
74.5432224, 74.5432224
0., 1., 0.
*BEAM SECTION, ELSET=MCSEG_051, MATERIAL=MC_PRE_051, SECTION=RECT
74.5432224, 74.5432224
0., 1., 0.
*BEAM SECTION, ELSET=MCSEG_052, MATERIAL=MC_PRE_052, SECTION=RECT
74.5432224, 74.5432224
0., 1., 0.
*BEAM SECTION, ELSET=MCSEG_053, MATERIAL=MC_PRE_053, SECTION=RECT
74.5432224, 74.5432224
0., 1., 0.
*BEAM SECTION, ELSET=MCSEG_054, MATERIAL=MC_PRE_054, SECTION=RECT
74.5432224, 74.5432224
0., 1., 0.
*BEAM SECTION, ELSET=MCSEG_055, MATERIAL=MC_PRE_055, SECTION=RECT
74.5432224, 74.5432224
0., 1., 0.
*BEAM SECTION, ELSET=MCSEG_056, MATERIAL=MC_PRE_056, SECTION=RECT
74.5432224, 74.5432224
0., 1., 0.
*BEAM SECTION, ELSET=MCSEG_057, MATERIAL=MC_PRE_057, SECTION=RECT
74.5432224, 74.5432224
0., 1., 0.
*BEAM SECTION, ELSET=MCSEG_058, MATERIAL=MC_PRE_058, SECTION=RECT
74.5432224, 74.5432224
0., 1., 0.
*BEAM SECTION, ELSET=MCSEG_059, MATERIAL=MC_PRE_059, SECTION=RECT
74.5432224, 74.5432224
0., 1., 0.
*BEAM SECTION, ELSET=MCSEG_060, MATERIAL=MC_PRE_060, SECTION=RECT
74.5432224, 74.5432224
0., 1., 0.
*BEAM SECTION, ELSET=MCSEG_061, MATERIAL=MC_PRE_061, SECTION=RECT
74.5432224, 74.5432224
0., 1., 0.
*BEAM SECTION, ELSET=MCSEG_062, MATERIAL=MC_PRE_062, SECTION=RECT
74.5432224, 74.5432224
0., 1., 0.
*BEAM SECTION, ELSET=MCSEG_063, MATERIAL=MC_PRE_063, SECTION=RECT
74.5432224, 74.5432224
0., 1., 0.
*BEAM SECTION, ELSET=MCSEG_064, MATERIAL=MC_PRE_064, SECTION=RECT
74.5432224, 74.5432224
0., 1., 0.
*BEAM SECTION, ELSET=MCSEG_065, MATERIAL=MC_PRE_065, SECTION=RECT
74.5432224, 74.5432224
0., 1., 0.
*BEAM SECTION, ELSET=MCSEG_066, MATERIAL=MC_PRE_066, SECTION=RECT
74.5432224, 74.5432224
0., 1., 0.
*BEAM SECTION, ELSET=MCSEG_067, MATERIAL=MC_PRE_067, SECTION=RECT
74.5432224, 74.5432224
0., 1., 0.
*BEAM SECTION, ELSET=MCSEG_068, MATERIAL=MC_PRE_068, SECTION=RECT
74.5432224, 74.5432224
0., 1., 0.
*BEAM SECTION, ELSET=MCSEG_069, MATERIAL=MC_PRE_069, SECTION=RECT
74.5432224, 74.5432224
0., 1., 0.
*BEAM SECTION, ELSET=MCSEG_070, MATERIAL=MC_PRE_070, SECTION=RECT
74.5432224, 74.5432224
0., 1., 0.
*BEAM SECTION, ELSET=MCSEG_071, MATERIAL=MC_PRE_071, SECTION=RECT
74.5432224, 74.5432224
0., 1., 0.
*BEAM SECTION, ELSET=MCSEG_072, MATERIAL=MC_PRE_072, SECTION=RECT
74.5432224, 74.5432224
0., 1., 0.
*BEAM SECTION, ELSET=MCSEG_073, MATERIAL=MC_PRE_073, SECTION=RECT
74.5432224, 74.5432224
0., 1., 0.
*BEAM SECTION, ELSET=MCSEG_074, MATERIAL=MC_PRE_074, SECTION=RECT
74.5432224, 74.5432224
0., 1., 0.
*BEAM SECTION, ELSET=MCSEG_075, MATERIAL=MC_PRE_075, SECTION=RECT
74.5432224, 74.5432224
0., 1., 0.
*BEAM SECTION, ELSET=MCSEG_076, MATERIAL=MC_PRE_076, SECTION=RECT
74.5432224, 74.5432224
0., 1., 0.
*BEAM SECTION, ELSET=MCSEG_077, MATERIAL=MC_PRE_077, SECTION=RECT
74.5432224, 74.5432224
0., 1., 0.
*BEAM SECTION, ELSET=MCSEG_078, MATERIAL=MC_PRE_078, SECTION=RECT
74.5432224, 74.5432224
0., 1., 0.
*BEAM SECTION, ELSET=MCSEG_079, MATERIAL=MC_PRE_079, SECTION=RECT
74.5432224, 74.5432224
0., 1., 0.
*BEAM SECTION, ELSET=MCSEG_080, MATERIAL=MC_PRE_080, SECTION=RECT
74.5432224, 74.5432224
0., 1., 0.
*BEAM SECTION, ELSET=MCSEG_081, MATERIAL=MC_PRE_081, SECTION=RECT
74.5432224, 74.5432224
0., 1., 0.
*BEAM SECTION, ELSET=MCSEG_082, MATERIAL=MC_PRE_082, SECTION=RECT
74.5432224, 74.5432224
0., 1., 0.
*BEAM SECTION, ELSET=MCSEG_083, MATERIAL=MC_PRE_083, SECTION=RECT
74.5432224, 74.5432224
0., 1., 0.
*BEAM SECTION, ELSET=MCSEG_084, MATERIAL=MC_PRE_084, SECTION=RECT
74.5432224, 74.5432224
0., 1., 0.
*BEAM SECTION, ELSET=MCSEG_085, MATERIAL=MC_PRE_085, SECTION=RECT
74.5432224, 74.5432224
0., 1., 0.
*BEAM SECTION, ELSET=MCSEG_086, MATERIAL=MC_PRE_086, SECTION=RECT
74.5432224, 74.5432224
0., 1., 0.
*BEAM SECTION, ELSET=MCSEG_087, MATERIAL=MC_PRE_087, SECTION=RECT
74.5432224, 74.5432224
0., 1., 0.
*BEAM SECTION, ELSET=MCSEG_088, MATERIAL=MC_PRE_088, SECTION=RECT
74.5432224, 74.5432224
0., 1., 0.
*BEAM SECTION, ELSET=MCSEG_089, MATERIAL=MC_PRE_089, SECTION=RECT
74.5432224, 74.5432224
0., 1., 0.
*BEAM SECTION, ELSET=MCSEG_090, MATERIAL=MC_PRE_090, SECTION=RECT
74.5432224, 74.5432224
0., 1., 0.
*BEAM SECTION, ELSET=MCSEG_091, MATERIAL=MC_PRE_091, SECTION=RECT
74.5432224, 74.5432224
0., 1., 0.
*BEAM SECTION, ELSET=MCSEG_092, MATERIAL=MC_PRE_092, SECTION=RECT
74.5432224, 74.5432224
0., 1., 0.
*BEAM SECTION, ELSET=MCSEG_093, MATERIAL=MC_PRE_093, SECTION=RECT
74.5432224, 74.5432224
0., 1., 0.
*BEAM SECTION, ELSET=MCSEG_094, MATERIAL=MC_PRE_094, SECTION=RECT
74.5432224, 74.5432224
0., 1., 0.
*BEAM SECTION, ELSET=MCSEG_095, MATERIAL=MC_PRE_095, SECTION=RECT
74.5432224, 74.5432224
0., 1., 0.
*BEAM SECTION, ELSET=MCSEG_096, MATERIAL=MC_PRE_096, SECTION=RECT
74.5432224, 74.5432224
0., 1., 0.
*BEAM SECTION, ELSET=MCSEG_097, MATERIAL=MC_PRE_097, SECTION=RECT
74.5432224, 74.5432224
0., 1., 0.
*BEAM SECTION, ELSET=MCSEG_098, MATERIAL=MC_PRE_098, SECTION=RECT
74.5432224, 74.5432224
0., 1., 0.
*BEAM SECTION, ELSET=MCSEG_099, MATERIAL=MC_PRE_099, SECTION=RECT
74.5432224, 74.5432224
0., 1., 0.
*BEAM SECTION, ELSET=MCSEG_100, MATERIAL=MC_PRE_100, SECTION=RECT
74.5432224, 74.5432224
0., 1., 0.
*BEAM SECTION, ELSET=MCSEG_101, MATERIAL=MC_PRE_101, SECTION=RECT
74.5432224, 74.5432224
0., 1., 0.
*BEAM SECTION, ELSET=MCSEG_102, MATERIAL=MC_PRE_102, SECTION=RECT
74.5432224, 74.5432224
0., 1., 0.
*BEAM SECTION, ELSET=MCSEG_103, MATERIAL=MC_PRE_103, SECTION=RECT
74.5432224, 74.5432224
0., 1., 0.
*BEAM SECTION, ELSET=MCSEG_104, MATERIAL=MC_PRE_104, SECTION=RECT
74.5432224, 74.5432224
0., 1., 0.
*BEAM SECTION, ELSET=MCSEG_105, MATERIAL=MC_PRE_105, SECTION=RECT
74.5432224, 74.5432224
0., 1., 0.
*BEAM SECTION, ELSET=MCSEG_106, MATERIAL=MC_PRE_106, SECTION=RECT
74.5432224, 74.5432224
0., 1., 0.
*BEAM SECTION, ELSET=MCSEG_107, MATERIAL=MC_PRE_107, SECTION=RECT
74.5432224, 74.5432224
0., 1., 0.
*BEAM SECTION, ELSET=MCSEG_108, MATERIAL=MC_PRE_108, SECTION=RECT
74.5432224, 74.5432224
0., 1., 0.
*BEAM SECTION, ELSET=MCSEG_109, MATERIAL=MC_PRE_109, SECTION=RECT
74.5432224, 74.5432224
0., 1., 0.
*BEAM SECTION, ELSET=MCSEG_110, MATERIAL=MC_PRE_110, SECTION=RECT
74.5432224, 74.5432224
0., 1., 0.
*BEAM SECTION, ELSET=MCSEG_111, MATERIAL=MC_PRE_111, SECTION=RECT
74.5432224, 74.5432224
0., 1., 0.
*BEAM SECTION, ELSET=MCSEG_112, MATERIAL=MC_PRE_112, SECTION=RECT
74.5432224, 74.5432224
0., 1., 0.
*BEAM SECTION, ELSET=MCSEG_113, MATERIAL=MC_PRE_113, SECTION=RECT
74.5432224, 74.5432224
0., 1., 0.
*BEAM SECTION, ELSET=MCSEG_114, MATERIAL=MC_PRE_114, SECTION=RECT
74.5432224, 74.5432224
0., 1., 0.
*BEAM SECTION, ELSET=MCSEG_115, MATERIAL=MC_PRE_115, SECTION=RECT
74.5432224, 74.5432224
0., 1., 0.
*BEAM SECTION, ELSET=MCSEG_116, MATERIAL=MC_PRE_116, SECTION=RECT
74.5432224, 74.5432224
0., 1., 0.
*BEAM SECTION, ELSET=MCSEG_117, MATERIAL=MC_PRE_117, SECTION=RECT
74.5432224, 74.5432224
0., 1., 0.
*BEAM SECTION, ELSET=MCSEG_118, MATERIAL=MC_PRE_118, SECTION=RECT
74.5432224, 74.5432224
0., 1., 0.
*BEAM SECTION, ELSET=MCSEG_119, MATERIAL=MC_PRE_119, SECTION=RECT
74.5432224, 74.5432224
0., 1., 0.
*BEAM SECTION, ELSET=MCSEG_120, MATERIAL=MC_PRE_120, SECTION=RECT
74.5432224, 74.5432224
0., 1., 0.
*BEAM SECTION, ELSET=MCSEG_121, MATERIAL=MC_PRE_121, SECTION=RECT
74.5432224, 74.5432224
0., 1., 0.
*BEAM SECTION, ELSET=MCSEG_122, MATERIAL=MC_PRE_122, SECTION=RECT
74.5432224, 74.5432224
0., 1., 0.
*BEAM SECTION, ELSET=MCSEG_123, MATERIAL=MC_PRE_123, SECTION=RECT
74.5432224, 74.5432224
0., 1., 0.
*BEAM SECTION, ELSET=MCSEG_124, MATERIAL=MC_PRE_124, SECTION=RECT
74.5432224, 74.5432224
0., 1., 0.
*BEAM SECTION, ELSET=MCSEG_125, MATERIAL=MC_PRE_125, SECTION=RECT
74.5432224, 74.5432224
0., 1., 0.
*BEAM SECTION, ELSET=MCSEG_126, MATERIAL=MC_PRE_126, SECTION=RECT
74.5432224, 74.5432224
0., 1., 0.
*BEAM SECTION, ELSET=MCSEG_127, MATERIAL=MC_PRE_127, SECTION=RECT
74.5432224, 74.5432224
0., 1., 0.
*BEAM SECTION, ELSET=MCSEG_128, MATERIAL=MC_PRE_128, SECTION=RECT
74.5432224, 74.5432224
0., 1., 0.
*BEAM SECTION, ELSET=MCSEG_129, MATERIAL=MC_PRE_129, SECTION=RECT
74.5432224, 74.5432224
0., 1., 0.
*BEAM SECTION, ELSET=MCSEG_130, MATERIAL=MC_PRE_130, SECTION=RECT
74.5432224, 74.5432224
0., 1., 0.
*BEAM SECTION, ELSET=MCSEG_131, MATERIAL=MC_PRE_131, SECTION=RECT
74.5432224, 74.5432224
0., 1., 0.
*BEAM SECTION, ELSET=MCSEG_132, MATERIAL=MC_PRE_132, SECTION=RECT
74.5432224, 74.5432224
0., 1., 0.
*BEAM SECTION, ELSET=MCSEG_133, MATERIAL=MC_PRE_133, SECTION=RECT
74.5432224, 74.5432224
0., 1., 0.
*BEAM SECTION, ELSET=MCSEG_134, MATERIAL=MC_PRE_134, SECTION=RECT
74.5432224, 74.5432224
0., 1., 0.
*BEAM SECTION, ELSET=MCSEG_135, MATERIAL=MC_PRE_135, SECTION=RECT
74.5432224, 74.5432224
0., 1., 0.
*BEAM SECTION, ELSET=MCSEG_136, MATERIAL=MC_PRE_136, SECTION=RECT
74.5432224, 74.5432224
0., 1., 0.
*BEAM SECTION, ELSET=MCSEG_137, MATERIAL=MC_PRE_137, SECTION=RECT
74.5432224, 74.5432224
0., 1., 0.
*BEAM SECTION, ELSET=MCSEG_138, MATERIAL=MC_PRE_138, SECTION=RECT
74.5432224, 74.5432224
0., 1., 0.
*BEAM SECTION, ELSET=MCSEG_139, MATERIAL=MC_PRE_139, SECTION=RECT
74.5432224, 74.5432224
0., 1., 0.
*BEAM SECTION, ELSET=MCSEG_140, MATERIAL=MC_PRE_140, SECTION=RECT
74.5432224, 74.5432224
0., 1., 0.
*BEAM SECTION, ELSET=MCSEG_141, MATERIAL=MC_PRE_141, SECTION=RECT
74.5432224, 74.5432224
0., 1., 0.
*BEAM SECTION, ELSET=MCSEG_142, MATERIAL=MC_PRE_142, SECTION=RECT
74.5432224, 74.5432224
0., 1., 0.
*BEAM SECTION, ELSET=MCSEG_143, MATERIAL=MC_PRE_143, SECTION=RECT
74.5432224, 74.5432224
0., 1., 0.
*BEAM SECTION, ELSET=MCSEG_144, MATERIAL=MC_PRE_144, SECTION=RECT
74.5432224, 74.5432224
0., 1., 0.
*BEAM SECTION, ELSET=MCSEG_145, MATERIAL=MC_PRE_145, SECTION=RECT
74.5432224, 74.5432224
0., 1., 0.
*BEAM SECTION, ELSET=MCSEG_146, MATERIAL=MC_PRE_146, SECTION=RECT
74.5432224, 74.5432224
0., 1., 0.
*BEAM SECTION, ELSET=MCSEG_147, MATERIAL=MC_PRE_147, SECTION=RECT
74.5432224, 74.5432224
0., 1., 0.
*BEAM SECTION, ELSET=MCSEG_148, MATERIAL=MC_PRE_148, SECTION=RECT
74.5432224, 74.5432224
0., 1., 0.
*BEAM SECTION, ELSET=MCSEG_149, MATERIAL=MC_PRE_149, SECTION=RECT
74.5432224, 74.5432224
0., 1., 0.
*BEAM SECTION, ELSET=MCSEG_150, MATERIAL=MC_PRE_150, SECTION=RECT
74.5432224, 74.5432224
0., 1., 0.
*BEAM SECTION, ELSET=MCSEG_151, MATERIAL=MC_PRE_151, SECTION=RECT
74.5432224, 74.5432224
0., 1., 0.
*BEAM SECTION, ELSET=MCSEG_152, MATERIAL=MC_PRE_152, SECTION=RECT
74.5432224, 74.5432224
0., 1., 0.
*BEAM SECTION, ELSET=MCSEG_153, MATERIAL=MC_PRE_153, SECTION=RECT
74.5432224, 74.5432224
0., 1., 0.
*BEAM SECTION, ELSET=MCSEG_154, MATERIAL=MC_PRE_154, SECTION=RECT
74.5432224, 74.5432224
0., 1., 0.
*BEAM SECTION, ELSET=MCSEG_155, MATERIAL=MC_PRE_155, SECTION=RECT
74.5432224, 74.5432224
0., 1., 0.
*BEAM SECTION, ELSET=MCSEG_156, MATERIAL=MC_PRE_156, SECTION=RECT
74.5432224, 74.5432224
0., 1., 0.
*BEAM SECTION, ELSET=MCSEG_157, MATERIAL=MC_PRE_157, SECTION=RECT
74.5432224, 74.5432224
0., 1., 0.
*BEAM SECTION, ELSET=MCSEG_158, MATERIAL=MC_PRE_158, SECTION=RECT
74.5432224, 74.5432224
0., 1., 0.
*BEAM SECTION, ELSET=MCSEG_159, MATERIAL=MC_PRE_159, SECTION=RECT
74.5432224, 74.5432224
0., 1., 0.
*BEAM SECTION, ELSET=MCSEG_160, MATERIAL=MC_PRE_160, SECTION=RECT
74.5432224, 74.5432224
0., 1., 0.
*BEAM SECTION, ELSET=MCSEG_161, MATERIAL=MC_PRE_161, SECTION=RECT
74.5432224, 74.5432224
0., 1., 0.
*BEAM SECTION, ELSET=MCSEG_162, MATERIAL=MC_PRE_162, SECTION=RECT
74.5432224, 74.5432224
0., 1., 0.
*BEAM SECTION, ELSET=MCSEG_163, MATERIAL=MC_PRE_163, SECTION=RECT
74.5432224, 74.5432224
0., 1., 0.
*BEAM SECTION, ELSET=MCSEG_164, MATERIAL=MC_PRE_164, SECTION=RECT
74.5432224, 74.5432224
0., 1., 0.
*BEAM SECTION, ELSET=MCSEG_165, MATERIAL=MC_PRE_165, SECTION=RECT
74.5432224, 74.5432224
0., 1., 0.
*BEAM SECTION, ELSET=MCSEG_166, MATERIAL=MC_PRE_166, SECTION=RECT
74.5432224, 74.5432224
0., 1., 0.
*BEAM SECTION, ELSET=MCSEG_167, MATERIAL=MC_PRE_167, SECTION=RECT
74.5432224, 74.5432224
0., 1., 0.
*BEAM SECTION, ELSET=MCSEG_168, MATERIAL=MC_PRE_168, SECTION=RECT
74.5432224, 74.5432224
0., 1., 0.
*BEAM SECTION, ELSET=MCSEG_169, MATERIAL=MC_PRE_169, SECTION=RECT
74.5432224, 74.5432224
0., 1., 0.
*BEAM SECTION, ELSET=MCSEG_170, MATERIAL=MC_PRE_170, SECTION=RECT
74.5432224, 74.5432224
0., 1., 0.
*BEAM SECTION, ELSET=MCSEG_171, MATERIAL=MC_PRE_171, SECTION=RECT
74.5432224, 74.5432224
0., 1., 0.
*BEAM SECTION, ELSET=MCSEG_172, MATERIAL=MC_PRE_172, SECTION=RECT
74.5432224, 74.5432224
0., 1., 0.
*BEAM SECTION, ELSET=MCSEG_173, MATERIAL=MC_PRE_173, SECTION=RECT
74.5432224, 74.5432224
0., 1., 0.
*BEAM SECTION, ELSET=MCSEG_174, MATERIAL=MC_PRE_174, SECTION=RECT
74.5432224, 74.5432224
0., 1., 0.
*BEAM SECTION, ELSET=MCSEG_175, MATERIAL=MC_PRE_175, SECTION=RECT
74.5432224, 74.5432224
0., 1., 0.
*BEAM SECTION, ELSET=MCSEG_176, MATERIAL=MC_PRE_176, SECTION=RECT
74.5432224, 74.5432224
0., 1., 0.
*BEAM SECTION, ELSET=MCSEG_177, MATERIAL=MC_PRE_177, SECTION=RECT
74.5432224, 74.5432224
0., 1., 0.
*BEAM SECTION, ELSET=MCSEG_178, MATERIAL=MC_PRE_178, SECTION=RECT
74.5432224, 74.5432224
0., 1., 0.
*BEAM SECTION, ELSET=MCSEG_179, MATERIAL=MC_PRE_179, SECTION=RECT
74.5432224, 74.5432224
0., 1., 0.
*BEAM SECTION, ELSET=MCSEG_180, MATERIAL=MC_PRE_180, SECTION=RECT
74.5432224, 74.5432224
0., 1., 0.
*BEAM SECTION, ELSET=MCSEG_181, MATERIAL=MC_PRE_181, SECTION=RECT
74.5432224, 74.5432224
0., 1., 0.
*BEAM SECTION, ELSET=MCSEG_182, MATERIAL=MC_PRE_182, SECTION=RECT
74.5432224, 74.5432224
0., 1., 0.
*BEAM SECTION, ELSET=MCSEG_183, MATERIAL=MC_PRE_183, SECTION=RECT
74.5432224, 74.5432224
0., 1., 0.
*BEAM SECTION, ELSET=MCSEG_184, MATERIAL=MC_PRE_184, SECTION=RECT
74.5432224, 74.5432224
0., 1., 0.
*BEAM SECTION, ELSET=MCSEG_185, MATERIAL=MC_PRE_185, SECTION=RECT
74.5432224, 74.5432224
0., 1., 0.
*BEAM SECTION, ELSET=MCSEG_186, MATERIAL=MC_PRE_186, SECTION=RECT
74.5432224, 74.5432224
0., 1., 0.
*BEAM SECTION, ELSET=MCSEG_187, MATERIAL=MC_PRE_187, SECTION=RECT
74.5432224, 74.5432224
0., 1., 0.
*BEAM SECTION, ELSET=MCSEG_188, MATERIAL=MC_PRE_188, SECTION=RECT
74.5432224, 74.5432224
0., 1., 0.
*BEAM SECTION, ELSET=MCSEG_189, MATERIAL=MC_PRE_189, SECTION=RECT
74.5432224, 74.5432224
0., 1., 0.
*BEAM SECTION, ELSET=MCSEG_190, MATERIAL=MC_PRE_190, SECTION=RECT
74.5432224, 74.5432224
0., 1., 0.
*BEAM SECTION, ELSET=MCSEG_191, MATERIAL=MC_PRE_191, SECTION=RECT
74.5432224, 74.5432224
0., 1., 0.
*BEAM SECTION, ELSET=MCSEG_192, MATERIAL=MC_PRE_192, SECTION=RECT
74.5432224, 74.5432224
0., 1., 0.
*BEAM SECTION, ELSET=MCSEG_193, MATERIAL=MC_PRE_193, SECTION=RECT
74.5432224, 74.5432224
0., 1., 0.
*BEAM SECTION, ELSET=MCSEG_194, MATERIAL=MC_PRE_194, SECTION=RECT
74.5432224, 74.5432224
0., 1., 0.
*BEAM SECTION, ELSET=MCSEG_195, MATERIAL=MC_PRE_195, SECTION=RECT
74.5432224, 74.5432224
0., 1., 0.
*BEAM SECTION, ELSET=MCSEG_196, MATERIAL=MC_PRE_196, SECTION=RECT
74.5432224, 74.5432224
0., 1., 0.
*SOLID SECTION, ELSET=HGSTA_01, MATERIAL=HG_PRE_01
804.247719
*SOLID SECTION, ELSET=HGSTA_02, MATERIAL=HG_PRE_02
804.247719
*SOLID SECTION, ELSET=HGSTA_03, MATERIAL=HG_PRE_03
804.247719
*SOLID SECTION, ELSET=HGSTA_04, MATERIAL=HG_PRE_04
804.247719
*SOLID SECTION, ELSET=HGSTA_05, MATERIAL=HG_PRE_05
804.247719
*SOLID SECTION, ELSET=HGSTA_06, MATERIAL=HG_PRE_06
804.247719
*SOLID SECTION, ELSET=HGSTA_07, MATERIAL=HG_PRE_07
804.247719
*SOLID SECTION, ELSET=HGSTA_08, MATERIAL=HG_PRE_08
804.247719
*SOLID SECTION, ELSET=HGSTA_09, MATERIAL=HG_PRE_09
804.247719
*SOLID SECTION, ELSET=HGSTA_10, MATERIAL=HG_PRE_10
804.247719
*SOLID SECTION, ELSET=HGSTA_11, MATERIAL=HG_PRE_11
804.247719
*SOLID SECTION, ELSET=HGSTA_12, MATERIAL=HG_PRE_12
804.247719
*SOLID SECTION, ELSET=HGSTA_13, MATERIAL=HG_PRE_13
804.247719
*SOLID SECTION, ELSET=HGSTA_14, MATERIAL=HG_PRE_14
804.247719
*SOLID SECTION, ELSET=HGSTA_15, MATERIAL=HG_PRE_15
804.247719
*SOLID SECTION, ELSET=HGSTA_16, MATERIAL=HG_PRE_16
804.247719
*SOLID SECTION, ELSET=HGSTA_17, MATERIAL=HG_PRE_17
804.247719
*SOLID SECTION, ELSET=HGSTA_18, MATERIAL=HG_PRE_18
804.247719
*SOLID SECTION, ELSET=HGSTA_19, MATERIAL=HG_PRE_19
804.247719
*SOLID SECTION, ELSET=HGSTA_20, MATERIAL=HG_PRE_20
804.247719
*SOLID SECTION, ELSET=HGSTA_21, MATERIAL=HG_PRE_21
804.247719
*SOLID SECTION, ELSET=HGSTA_22, MATERIAL=HG_PRE_22
804.247719
*SOLID SECTION, ELSET=HGSTA_23, MATERIAL=HG_PRE_23
804.247719
*SOLID SECTION, ELSET=HGSTA_24, MATERIAL=HG_PRE_24
804.247719
*SOLID SECTION, ELSET=HGSTA_25, MATERIAL=HG_PRE_25
804.247719
*SOLID SECTION, ELSET=WIND_CABLES, MATERIAL=WIND_ROPE_SCREEN
452.389342
*ELSET, ELSET=MASS_1079
1079
*MASS, ELSET=MASS_1079
0.00133954191
*ELSET, ELSET=MASS_1080
1080
*MASS, ELSET=MASS_1080
0.00658608104
*ELSET, ELSET=MASS_1081
1081
*MASS, ELSET=MASS_1081
0.0078698087
*ELSET, ELSET=MASS_1082
1082
*MASS, ELSET=MASS_1082
0.00524653914
*ELSET, ELSET=MASS_1083
1083
*MASS, ELSET=MASS_1083
0.0078698087
*ELSET, ELSET=MASS_1084
1084
*MASS, ELSET=MASS_1084
0.00658608104
*ELSET, ELSET=MASS_1085
1085
*MASS, ELSET=MASS_1085
0.00133954191
*ELSET, ELSET=MASS_1086
1086
*MASS, ELSET=MASS_1086
0.00267908381
*ELSET, ELSET=MASS_1087
1087
*MASS, ELSET=MASS_1087
0.0131721621
*ELSET, ELSET=MASS_1088
1088
*MASS, ELSET=MASS_1088
0.0157396174
*ELSET, ELSET=MASS_1089
1089
*MASS, ELSET=MASS_1089
0.0104930783
*ELSET, ELSET=MASS_1090
1090
*MASS, ELSET=MASS_1090
0.0157396174
*ELSET, ELSET=MASS_1091
1091
*MASS, ELSET=MASS_1091
0.0131721621
*ELSET, ELSET=MASS_1092
1092
*MASS, ELSET=MASS_1092
0.00267908381
*ELSET, ELSET=MASS_1093
1093
*MASS, ELSET=MASS_1093
0.00267908381
*ELSET, ELSET=MASS_1094
1094
*MASS, ELSET=MASS_1094
0.0131721621
*ELSET, ELSET=MASS_1095
1095
*MASS, ELSET=MASS_1095
0.0157396174
*ELSET, ELSET=MASS_1096
1096
*MASS, ELSET=MASS_1096
0.0104930783
*ELSET, ELSET=MASS_1097
1097
*MASS, ELSET=MASS_1097
0.0157396174
*ELSET, ELSET=MASS_1098
1098
*MASS, ELSET=MASS_1098
0.0131721621
*ELSET, ELSET=MASS_1099
1099
*MASS, ELSET=MASS_1099
0.00267908381
*ELSET, ELSET=MASS_1100
1100
*MASS, ELSET=MASS_1100
0.00267908381
*ELSET, ELSET=MASS_1101
1101
*MASS, ELSET=MASS_1101
0.0131721621
*ELSET, ELSET=MASS_1102
1102
*MASS, ELSET=MASS_1102
0.0157396174
*ELSET, ELSET=MASS_1103
1103
*MASS, ELSET=MASS_1103
0.0104930783
*ELSET, ELSET=MASS_1104
1104
*MASS, ELSET=MASS_1104
0.0157396174
*ELSET, ELSET=MASS_1105
1105
*MASS, ELSET=MASS_1105
0.0131721621
*ELSET, ELSET=MASS_1106
1106
*MASS, ELSET=MASS_1106
0.00267908381
*ELSET, ELSET=MASS_1107
1107
*MASS, ELSET=MASS_1107
0.00267908381
*ELSET, ELSET=MASS_1108
1108
*MASS, ELSET=MASS_1108
0.0131721621
*ELSET, ELSET=MASS_1109
1109
*MASS, ELSET=MASS_1109
0.0157396174
*ELSET, ELSET=MASS_1110
1110
*MASS, ELSET=MASS_1110
0.0104930783
*ELSET, ELSET=MASS_1111
1111
*MASS, ELSET=MASS_1111
0.0157396174
*ELSET, ELSET=MASS_1112
1112
*MASS, ELSET=MASS_1112
0.0131721621
*ELSET, ELSET=MASS_1113
1113
*MASS, ELSET=MASS_1113
0.00267908381
*ELSET, ELSET=MASS_1114
1114
*MASS, ELSET=MASS_1114
0.00267908381
*ELSET, ELSET=MASS_1115
1115
*MASS, ELSET=MASS_1115
0.0131721621
*ELSET, ELSET=MASS_1116
1116
*MASS, ELSET=MASS_1116
0.0157396174
*ELSET, ELSET=MASS_1117
1117
*MASS, ELSET=MASS_1117
0.0104930783
*ELSET, ELSET=MASS_1118
1118
*MASS, ELSET=MASS_1118
0.0157396174
*ELSET, ELSET=MASS_1119
1119
*MASS, ELSET=MASS_1119
0.0131721621
*ELSET, ELSET=MASS_1120
1120
*MASS, ELSET=MASS_1120
0.00267908381
*ELSET, ELSET=MASS_1121
1121
*MASS, ELSET=MASS_1121
0.00267908381
*ELSET, ELSET=MASS_1122
1122
*MASS, ELSET=MASS_1122
0.0131721621
*ELSET, ELSET=MASS_1123
1123
*MASS, ELSET=MASS_1123
0.0157396174
*ELSET, ELSET=MASS_1124
1124
*MASS, ELSET=MASS_1124
0.0104930783
*ELSET, ELSET=MASS_1125
1125
*MASS, ELSET=MASS_1125
0.0157396174
*ELSET, ELSET=MASS_1126
1126
*MASS, ELSET=MASS_1126
0.0131721621
*ELSET, ELSET=MASS_1127
1127
*MASS, ELSET=MASS_1127
0.00267908381
*ELSET, ELSET=MASS_1128
1128
*MASS, ELSET=MASS_1128
0.00267908381
*ELSET, ELSET=MASS_1129
1129
*MASS, ELSET=MASS_1129
0.0131721621
*ELSET, ELSET=MASS_1130
1130
*MASS, ELSET=MASS_1130
0.0157396174
*ELSET, ELSET=MASS_1131
1131
*MASS, ELSET=MASS_1131
0.0104930783
*ELSET, ELSET=MASS_1132
1132
*MASS, ELSET=MASS_1132
0.0157396174
*ELSET, ELSET=MASS_1133
1133
*MASS, ELSET=MASS_1133
0.0131721621
*ELSET, ELSET=MASS_1134
1134
*MASS, ELSET=MASS_1134
0.00267908381
*ELSET, ELSET=MASS_1135
1135
*MASS, ELSET=MASS_1135
0.00267908381
*ELSET, ELSET=MASS_1136
1136
*MASS, ELSET=MASS_1136
0.0131721621
*ELSET, ELSET=MASS_1137
1137
*MASS, ELSET=MASS_1137
0.0157396174
*ELSET, ELSET=MASS_1138
1138
*MASS, ELSET=MASS_1138
0.0104930783
*ELSET, ELSET=MASS_1139
1139
*MASS, ELSET=MASS_1139
0.0157396174
*ELSET, ELSET=MASS_1140
1140
*MASS, ELSET=MASS_1140
0.0131721621
*ELSET, ELSET=MASS_1141
1141
*MASS, ELSET=MASS_1141
0.00267908381
*ELSET, ELSET=MASS_1142
1142
*MASS, ELSET=MASS_1142
0.00267908381
*ELSET, ELSET=MASS_1143
1143
*MASS, ELSET=MASS_1143
0.0131721621
*ELSET, ELSET=MASS_1144
1144
*MASS, ELSET=MASS_1144
0.0157396174
*ELSET, ELSET=MASS_1145
1145
*MASS, ELSET=MASS_1145
0.0104930783
*ELSET, ELSET=MASS_1146
1146
*MASS, ELSET=MASS_1146
0.0157396174
*ELSET, ELSET=MASS_1147
1147
*MASS, ELSET=MASS_1147
0.0131721621
*ELSET, ELSET=MASS_1148
1148
*MASS, ELSET=MASS_1148
0.00267908381
*ELSET, ELSET=MASS_1149
1149
*MASS, ELSET=MASS_1149
0.00267908381
*ELSET, ELSET=MASS_1150
1150
*MASS, ELSET=MASS_1150
0.0131721621
*ELSET, ELSET=MASS_1151
1151
*MASS, ELSET=MASS_1151
0.0157396174
*ELSET, ELSET=MASS_1152
1152
*MASS, ELSET=MASS_1152
0.0104930783
*ELSET, ELSET=MASS_1153
1153
*MASS, ELSET=MASS_1153
0.0157396174
*ELSET, ELSET=MASS_1154
1154
*MASS, ELSET=MASS_1154
0.0131721621
*ELSET, ELSET=MASS_1155
1155
*MASS, ELSET=MASS_1155
0.00267908381
*ELSET, ELSET=MASS_1156
1156
*MASS, ELSET=MASS_1156
0.00267908381
*ELSET, ELSET=MASS_1157
1157
*MASS, ELSET=MASS_1157
0.0131721621
*ELSET, ELSET=MASS_1158
1158
*MASS, ELSET=MASS_1158
0.0157396174
*ELSET, ELSET=MASS_1159
1159
*MASS, ELSET=MASS_1159
0.0104930783
*ELSET, ELSET=MASS_1160
1160
*MASS, ELSET=MASS_1160
0.0157396174
*ELSET, ELSET=MASS_1161
1161
*MASS, ELSET=MASS_1161
0.0131721621
*ELSET, ELSET=MASS_1162
1162
*MASS, ELSET=MASS_1162
0.00267908381
*ELSET, ELSET=MASS_1163
1163
*MASS, ELSET=MASS_1163
0.00267908381
*ELSET, ELSET=MASS_1164
1164
*MASS, ELSET=MASS_1164
0.0131721621
*ELSET, ELSET=MASS_1165
1165
*MASS, ELSET=MASS_1165
0.0157396174
*ELSET, ELSET=MASS_1166
1166
*MASS, ELSET=MASS_1166
0.0104930783
*ELSET, ELSET=MASS_1167
1167
*MASS, ELSET=MASS_1167
0.0157396174
*ELSET, ELSET=MASS_1168
1168
*MASS, ELSET=MASS_1168
0.0131721621
*ELSET, ELSET=MASS_1169
1169
*MASS, ELSET=MASS_1169
0.00267908381
*ELSET, ELSET=MASS_1170
1170
*MASS, ELSET=MASS_1170
0.00267908381
*ELSET, ELSET=MASS_1171
1171
*MASS, ELSET=MASS_1171
0.0131721621
*ELSET, ELSET=MASS_1172
1172
*MASS, ELSET=MASS_1172
0.0157396174
*ELSET, ELSET=MASS_1173
1173
*MASS, ELSET=MASS_1173
0.0104930783
*ELSET, ELSET=MASS_1174
1174
*MASS, ELSET=MASS_1174
0.0157396174
*ELSET, ELSET=MASS_1175
1175
*MASS, ELSET=MASS_1175
0.0131721621
*ELSET, ELSET=MASS_1176
1176
*MASS, ELSET=MASS_1176
0.00267908381
*ELSET, ELSET=MASS_1177
1177
*MASS, ELSET=MASS_1177
0.00267908381
*ELSET, ELSET=MASS_1178
1178
*MASS, ELSET=MASS_1178
0.0131721621
*ELSET, ELSET=MASS_1179
1179
*MASS, ELSET=MASS_1179
0.0157396174
*ELSET, ELSET=MASS_1180
1180
*MASS, ELSET=MASS_1180
0.0104930783
*ELSET, ELSET=MASS_1181
1181
*MASS, ELSET=MASS_1181
0.0157396174
*ELSET, ELSET=MASS_1182
1182
*MASS, ELSET=MASS_1182
0.0131721621
*ELSET, ELSET=MASS_1183
1183
*MASS, ELSET=MASS_1183
0.00267908381
*ELSET, ELSET=MASS_1184
1184
*MASS, ELSET=MASS_1184
0.00267908381
*ELSET, ELSET=MASS_1185
1185
*MASS, ELSET=MASS_1185
0.0131721621
*ELSET, ELSET=MASS_1186
1186
*MASS, ELSET=MASS_1186
0.0157396174
*ELSET, ELSET=MASS_1187
1187
*MASS, ELSET=MASS_1187
0.0104930783
*ELSET, ELSET=MASS_1188
1188
*MASS, ELSET=MASS_1188
0.0157396174
*ELSET, ELSET=MASS_1189
1189
*MASS, ELSET=MASS_1189
0.0131721621
*ELSET, ELSET=MASS_1190
1190
*MASS, ELSET=MASS_1190
0.00267908381
*ELSET, ELSET=MASS_1191
1191
*MASS, ELSET=MASS_1191
0.00267908381
*ELSET, ELSET=MASS_1192
1192
*MASS, ELSET=MASS_1192
0.0131721621
*ELSET, ELSET=MASS_1193
1193
*MASS, ELSET=MASS_1193
0.0157396174
*ELSET, ELSET=MASS_1194
1194
*MASS, ELSET=MASS_1194
0.0104930783
*ELSET, ELSET=MASS_1195
1195
*MASS, ELSET=MASS_1195
0.0157396174
*ELSET, ELSET=MASS_1196
1196
*MASS, ELSET=MASS_1196
0.0131721621
*ELSET, ELSET=MASS_1197
1197
*MASS, ELSET=MASS_1197
0.00267908381
*ELSET, ELSET=MASS_1198
1198
*MASS, ELSET=MASS_1198
0.00267908381
*ELSET, ELSET=MASS_1199
1199
*MASS, ELSET=MASS_1199
0.0131721621
*ELSET, ELSET=MASS_1200
1200
*MASS, ELSET=MASS_1200
0.0157396174
*ELSET, ELSET=MASS_1201
1201
*MASS, ELSET=MASS_1201
0.0104930783
*ELSET, ELSET=MASS_1202
1202
*MASS, ELSET=MASS_1202
0.0157396174
*ELSET, ELSET=MASS_1203
1203
*MASS, ELSET=MASS_1203
0.0131721621
*ELSET, ELSET=MASS_1204
1204
*MASS, ELSET=MASS_1204
0.00267908381
*ELSET, ELSET=MASS_1205
1205
*MASS, ELSET=MASS_1205
0.00267908381
*ELSET, ELSET=MASS_1206
1206
*MASS, ELSET=MASS_1206
0.0131721621
*ELSET, ELSET=MASS_1207
1207
*MASS, ELSET=MASS_1207
0.0157396174
*ELSET, ELSET=MASS_1208
1208
*MASS, ELSET=MASS_1208
0.0104930783
*ELSET, ELSET=MASS_1209
1209
*MASS, ELSET=MASS_1209
0.0157396174
*ELSET, ELSET=MASS_1210
1210
*MASS, ELSET=MASS_1210
0.0131721621
*ELSET, ELSET=MASS_1211
1211
*MASS, ELSET=MASS_1211
0.00267908381
*ELSET, ELSET=MASS_1212
1212
*MASS, ELSET=MASS_1212
0.00267908381
*ELSET, ELSET=MASS_1213
1213
*MASS, ELSET=MASS_1213
0.0131721621
*ELSET, ELSET=MASS_1214
1214
*MASS, ELSET=MASS_1214
0.0157396174
*ELSET, ELSET=MASS_1215
1215
*MASS, ELSET=MASS_1215
0.0104930783
*ELSET, ELSET=MASS_1216
1216
*MASS, ELSET=MASS_1216
0.0157396174
*ELSET, ELSET=MASS_1217
1217
*MASS, ELSET=MASS_1217
0.0131721621
*ELSET, ELSET=MASS_1218
1218
*MASS, ELSET=MASS_1218
0.00267908381
*ELSET, ELSET=MASS_1219
1219
*MASS, ELSET=MASS_1219
0.00267908381
*ELSET, ELSET=MASS_1220
1220
*MASS, ELSET=MASS_1220
0.0131721621
*ELSET, ELSET=MASS_1221
1221
*MASS, ELSET=MASS_1221
0.0157396174
*ELSET, ELSET=MASS_1222
1222
*MASS, ELSET=MASS_1222
0.0104930783
*ELSET, ELSET=MASS_1223
1223
*MASS, ELSET=MASS_1223
0.0157396174
*ELSET, ELSET=MASS_1224
1224
*MASS, ELSET=MASS_1224
0.0131721621
*ELSET, ELSET=MASS_1225
1225
*MASS, ELSET=MASS_1225
0.00267908381
*ELSET, ELSET=MASS_1226
1226
*MASS, ELSET=MASS_1226
0.00267908381
*ELSET, ELSET=MASS_1227
1227
*MASS, ELSET=MASS_1227
0.0131721621
*ELSET, ELSET=MASS_1228
1228
*MASS, ELSET=MASS_1228
0.0157396174
*ELSET, ELSET=MASS_1229
1229
*MASS, ELSET=MASS_1229
0.0104930783
*ELSET, ELSET=MASS_1230
1230
*MASS, ELSET=MASS_1230
0.0157396174
*ELSET, ELSET=MASS_1231
1231
*MASS, ELSET=MASS_1231
0.0131721621
*ELSET, ELSET=MASS_1232
1232
*MASS, ELSET=MASS_1232
0.00267908381
*ELSET, ELSET=MASS_1233
1233
*MASS, ELSET=MASS_1233
0.00267908381
*ELSET, ELSET=MASS_1234
1234
*MASS, ELSET=MASS_1234
0.0131721621
*ELSET, ELSET=MASS_1235
1235
*MASS, ELSET=MASS_1235
0.0157396174
*ELSET, ELSET=MASS_1236
1236
*MASS, ELSET=MASS_1236
0.0104930783
*ELSET, ELSET=MASS_1237
1237
*MASS, ELSET=MASS_1237
0.0157396174
*ELSET, ELSET=MASS_1238
1238
*MASS, ELSET=MASS_1238
0.0131721621
*ELSET, ELSET=MASS_1239
1239
*MASS, ELSET=MASS_1239
0.00267908381
*ELSET, ELSET=MASS_1240
1240
*MASS, ELSET=MASS_1240
0.00267908381
*ELSET, ELSET=MASS_1241
1241
*MASS, ELSET=MASS_1241
0.0131721621
*ELSET, ELSET=MASS_1242
1242
*MASS, ELSET=MASS_1242
0.0157396174
*ELSET, ELSET=MASS_1243
1243
*MASS, ELSET=MASS_1243
0.0104930783
*ELSET, ELSET=MASS_1244
1244
*MASS, ELSET=MASS_1244
0.0157396174
*ELSET, ELSET=MASS_1245
1245
*MASS, ELSET=MASS_1245
0.0131721621
*ELSET, ELSET=MASS_1246
1246
*MASS, ELSET=MASS_1246
0.00267908381
*ELSET, ELSET=MASS_1247
1247
*MASS, ELSET=MASS_1247
0.00267908381
*ELSET, ELSET=MASS_1248
1248
*MASS, ELSET=MASS_1248
0.0131721621
*ELSET, ELSET=MASS_1249
1249
*MASS, ELSET=MASS_1249
0.0157396174
*ELSET, ELSET=MASS_1250
1250
*MASS, ELSET=MASS_1250
0.0104930783
*ELSET, ELSET=MASS_1251
1251
*MASS, ELSET=MASS_1251
0.0157396174
*ELSET, ELSET=MASS_1252
1252
*MASS, ELSET=MASS_1252
0.0131721621
*ELSET, ELSET=MASS_1253
1253
*MASS, ELSET=MASS_1253
0.00267908381
*ELSET, ELSET=MASS_1254
1254
*MASS, ELSET=MASS_1254
0.00267908381
*ELSET, ELSET=MASS_1255
1255
*MASS, ELSET=MASS_1255
0.0131721621
*ELSET, ELSET=MASS_1256
1256
*MASS, ELSET=MASS_1256
0.0157396174
*ELSET, ELSET=MASS_1257
1257
*MASS, ELSET=MASS_1257
0.0104930783
*ELSET, ELSET=MASS_1258
1258
*MASS, ELSET=MASS_1258
0.0157396174
*ELSET, ELSET=MASS_1259
1259
*MASS, ELSET=MASS_1259
0.0131721621
*ELSET, ELSET=MASS_1260
1260
*MASS, ELSET=MASS_1260
0.00267908381
*ELSET, ELSET=MASS_1261
1261
*MASS, ELSET=MASS_1261
0.00267908381
*ELSET, ELSET=MASS_1262
1262
*MASS, ELSET=MASS_1262
0.0131721621
*ELSET, ELSET=MASS_1263
1263
*MASS, ELSET=MASS_1263
0.0157396174
*ELSET, ELSET=MASS_1264
1264
*MASS, ELSET=MASS_1264
0.0104930783
*ELSET, ELSET=MASS_1265
1265
*MASS, ELSET=MASS_1265
0.0157396174
*ELSET, ELSET=MASS_1266
1266
*MASS, ELSET=MASS_1266
0.0131721621
*ELSET, ELSET=MASS_1267
1267
*MASS, ELSET=MASS_1267
0.00267908381
*ELSET, ELSET=MASS_1268
1268
*MASS, ELSET=MASS_1268
0.00267908381
*ELSET, ELSET=MASS_1269
1269
*MASS, ELSET=MASS_1269
0.0131721621
*ELSET, ELSET=MASS_1270
1270
*MASS, ELSET=MASS_1270
0.0157396174
*ELSET, ELSET=MASS_1271
1271
*MASS, ELSET=MASS_1271
0.0104930783
*ELSET, ELSET=MASS_1272
1272
*MASS, ELSET=MASS_1272
0.0157396174
*ELSET, ELSET=MASS_1273
1273
*MASS, ELSET=MASS_1273
0.0131721621
*ELSET, ELSET=MASS_1274
1274
*MASS, ELSET=MASS_1274
0.00267908381
*ELSET, ELSET=MASS_1275
1275
*MASS, ELSET=MASS_1275
0.00267908381
*ELSET, ELSET=MASS_1276
1276
*MASS, ELSET=MASS_1276
0.0131721621
*ELSET, ELSET=MASS_1277
1277
*MASS, ELSET=MASS_1277
0.0157396174
*ELSET, ELSET=MASS_1278
1278
*MASS, ELSET=MASS_1278
0.0104930783
*ELSET, ELSET=MASS_1279
1279
*MASS, ELSET=MASS_1279
0.0157396174
*ELSET, ELSET=MASS_1280
1280
*MASS, ELSET=MASS_1280
0.0131721621
*ELSET, ELSET=MASS_1281
1281
*MASS, ELSET=MASS_1281
0.00267908381
*ELSET, ELSET=MASS_1282
1282
*MASS, ELSET=MASS_1282
0.00267908381
*ELSET, ELSET=MASS_1283
1283
*MASS, ELSET=MASS_1283
0.0131721621
*ELSET, ELSET=MASS_1284
1284
*MASS, ELSET=MASS_1284
0.0157396174
*ELSET, ELSET=MASS_1285
1285
*MASS, ELSET=MASS_1285
0.0104930783
*ELSET, ELSET=MASS_1286
1286
*MASS, ELSET=MASS_1286
0.0157396174
*ELSET, ELSET=MASS_1287
1287
*MASS, ELSET=MASS_1287
0.0131721621
*ELSET, ELSET=MASS_1288
1288
*MASS, ELSET=MASS_1288
0.00267908381
*ELSET, ELSET=MASS_1289
1289
*MASS, ELSET=MASS_1289
0.00267908381
*ELSET, ELSET=MASS_1290
1290
*MASS, ELSET=MASS_1290
0.0131721621
*ELSET, ELSET=MASS_1291
1291
*MASS, ELSET=MASS_1291
0.0157396174
*ELSET, ELSET=MASS_1292
1292
*MASS, ELSET=MASS_1292
0.0104930783
*ELSET, ELSET=MASS_1293
1293
*MASS, ELSET=MASS_1293
0.0157396174
*ELSET, ELSET=MASS_1294
1294
*MASS, ELSET=MASS_1294
0.0131721621
*ELSET, ELSET=MASS_1295
1295
*MASS, ELSET=MASS_1295
0.00267908381
*ELSET, ELSET=MASS_1296
1296
*MASS, ELSET=MASS_1296
0.00267908381
*ELSET, ELSET=MASS_1297
1297
*MASS, ELSET=MASS_1297
0.0131721621
*ELSET, ELSET=MASS_1298
1298
*MASS, ELSET=MASS_1298
0.0157396174
*ELSET, ELSET=MASS_1299
1299
*MASS, ELSET=MASS_1299
0.0104930783
*ELSET, ELSET=MASS_1300
1300
*MASS, ELSET=MASS_1300
0.0157396174
*ELSET, ELSET=MASS_1301
1301
*MASS, ELSET=MASS_1301
0.0131721621
*ELSET, ELSET=MASS_1302
1302
*MASS, ELSET=MASS_1302
0.00267908381
*ELSET, ELSET=MASS_1303
1303
*MASS, ELSET=MASS_1303
0.00267908381
*ELSET, ELSET=MASS_1304
1304
*MASS, ELSET=MASS_1304
0.0131721621
*ELSET, ELSET=MASS_1305
1305
*MASS, ELSET=MASS_1305
0.0157396174
*ELSET, ELSET=MASS_1306
1306
*MASS, ELSET=MASS_1306
0.0104930783
*ELSET, ELSET=MASS_1307
1307
*MASS, ELSET=MASS_1307
0.0157396174
*ELSET, ELSET=MASS_1308
1308
*MASS, ELSET=MASS_1308
0.0131721621
*ELSET, ELSET=MASS_1309
1309
*MASS, ELSET=MASS_1309
0.00267908381
*ELSET, ELSET=MASS_1310
1310
*MASS, ELSET=MASS_1310
0.00267908381
*ELSET, ELSET=MASS_1311
1311
*MASS, ELSET=MASS_1311
0.0131721621
*ELSET, ELSET=MASS_1312
1312
*MASS, ELSET=MASS_1312
0.0157396174
*ELSET, ELSET=MASS_1313
1313
*MASS, ELSET=MASS_1313
0.0104930783
*ELSET, ELSET=MASS_1314
1314
*MASS, ELSET=MASS_1314
0.0157396174
*ELSET, ELSET=MASS_1315
1315
*MASS, ELSET=MASS_1315
0.0131721621
*ELSET, ELSET=MASS_1316
1316
*MASS, ELSET=MASS_1316
0.00267908381
*ELSET, ELSET=MASS_1317
1317
*MASS, ELSET=MASS_1317
0.00267908381
*ELSET, ELSET=MASS_1318
1318
*MASS, ELSET=MASS_1318
0.0131721621
*ELSET, ELSET=MASS_1319
1319
*MASS, ELSET=MASS_1319
0.0157396174
*ELSET, ELSET=MASS_1320
1320
*MASS, ELSET=MASS_1320
0.0104930783
*ELSET, ELSET=MASS_1321
1321
*MASS, ELSET=MASS_1321
0.0157396174
*ELSET, ELSET=MASS_1322
1322
*MASS, ELSET=MASS_1322
0.0131721621
*ELSET, ELSET=MASS_1323
1323
*MASS, ELSET=MASS_1323
0.00267908381
*ELSET, ELSET=MASS_1324
1324
*MASS, ELSET=MASS_1324
0.00267908381
*ELSET, ELSET=MASS_1325
1325
*MASS, ELSET=MASS_1325
0.0131721621
*ELSET, ELSET=MASS_1326
1326
*MASS, ELSET=MASS_1326
0.0157396174
*ELSET, ELSET=MASS_1327
1327
*MASS, ELSET=MASS_1327
0.0104930783
*ELSET, ELSET=MASS_1328
1328
*MASS, ELSET=MASS_1328
0.0157396174
*ELSET, ELSET=MASS_1329
1329
*MASS, ELSET=MASS_1329
0.0131721621
*ELSET, ELSET=MASS_1330
1330
*MASS, ELSET=MASS_1330
0.00267908381
*ELSET, ELSET=MASS_1331
1331
*MASS, ELSET=MASS_1331
0.00267908381
*ELSET, ELSET=MASS_1332
1332
*MASS, ELSET=MASS_1332
0.0131721621
*ELSET, ELSET=MASS_1333
1333
*MASS, ELSET=MASS_1333
0.0157396174
*ELSET, ELSET=MASS_1334
1334
*MASS, ELSET=MASS_1334
0.0104930783
*ELSET, ELSET=MASS_1335
1335
*MASS, ELSET=MASS_1335
0.0157396174
*ELSET, ELSET=MASS_1336
1336
*MASS, ELSET=MASS_1336
0.0131721621
*ELSET, ELSET=MASS_1337
1337
*MASS, ELSET=MASS_1337
0.00267908381
*ELSET, ELSET=MASS_1338
1338
*MASS, ELSET=MASS_1338
0.00267908381
*ELSET, ELSET=MASS_1339
1339
*MASS, ELSET=MASS_1339
0.0131721621
*ELSET, ELSET=MASS_1340
1340
*MASS, ELSET=MASS_1340
0.0157396174
*ELSET, ELSET=MASS_1341
1341
*MASS, ELSET=MASS_1341
0.0104930783
*ELSET, ELSET=MASS_1342
1342
*MASS, ELSET=MASS_1342
0.0157396174
*ELSET, ELSET=MASS_1343
1343
*MASS, ELSET=MASS_1343
0.0131721621
*ELSET, ELSET=MASS_1344
1344
*MASS, ELSET=MASS_1344
0.00267908381
*ELSET, ELSET=MASS_1345
1345
*MASS, ELSET=MASS_1345
0.00267908381
*ELSET, ELSET=MASS_1346
1346
*MASS, ELSET=MASS_1346
0.0131721621
*ELSET, ELSET=MASS_1347
1347
*MASS, ELSET=MASS_1347
0.0157396174
*ELSET, ELSET=MASS_1348
1348
*MASS, ELSET=MASS_1348
0.0104930783
*ELSET, ELSET=MASS_1349
1349
*MASS, ELSET=MASS_1349
0.0157396174
*ELSET, ELSET=MASS_1350
1350
*MASS, ELSET=MASS_1350
0.0131721621
*ELSET, ELSET=MASS_1351
1351
*MASS, ELSET=MASS_1351
0.00267908381
*ELSET, ELSET=MASS_1352
1352
*MASS, ELSET=MASS_1352
0.00267908381
*ELSET, ELSET=MASS_1353
1353
*MASS, ELSET=MASS_1353
0.0131721621
*ELSET, ELSET=MASS_1354
1354
*MASS, ELSET=MASS_1354
0.0157396174
*ELSET, ELSET=MASS_1355
1355
*MASS, ELSET=MASS_1355
0.0104930783
*ELSET, ELSET=MASS_1356
1356
*MASS, ELSET=MASS_1356
0.0157396174
*ELSET, ELSET=MASS_1357
1357
*MASS, ELSET=MASS_1357
0.0131721621
*ELSET, ELSET=MASS_1358
1358
*MASS, ELSET=MASS_1358
0.00267908381
*ELSET, ELSET=MASS_1359
1359
*MASS, ELSET=MASS_1359
0.00267908381
*ELSET, ELSET=MASS_1360
1360
*MASS, ELSET=MASS_1360
0.0131721621
*ELSET, ELSET=MASS_1361
1361
*MASS, ELSET=MASS_1361
0.0157396174
*ELSET, ELSET=MASS_1362
1362
*MASS, ELSET=MASS_1362
0.0104930783
*ELSET, ELSET=MASS_1363
1363
*MASS, ELSET=MASS_1363
0.0157396174
*ELSET, ELSET=MASS_1364
1364
*MASS, ELSET=MASS_1364
0.0131721621
*ELSET, ELSET=MASS_1365
1365
*MASS, ELSET=MASS_1365
0.00267908381
*ELSET, ELSET=MASS_1366
1366
*MASS, ELSET=MASS_1366
0.00267908381
*ELSET, ELSET=MASS_1367
1367
*MASS, ELSET=MASS_1367
0.0131721621
*ELSET, ELSET=MASS_1368
1368
*MASS, ELSET=MASS_1368
0.0157396174
*ELSET, ELSET=MASS_1369
1369
*MASS, ELSET=MASS_1369
0.0104930783
*ELSET, ELSET=MASS_1370
1370
*MASS, ELSET=MASS_1370
0.0157396174
*ELSET, ELSET=MASS_1371
1371
*MASS, ELSET=MASS_1371
0.0131721621
*ELSET, ELSET=MASS_1372
1372
*MASS, ELSET=MASS_1372
0.00267908381
*ELSET, ELSET=MASS_1373
1373
*MASS, ELSET=MASS_1373
0.00267908381
*ELSET, ELSET=MASS_1374
1374
*MASS, ELSET=MASS_1374
0.0131721621
*ELSET, ELSET=MASS_1375
1375
*MASS, ELSET=MASS_1375
0.0157396174
*ELSET, ELSET=MASS_1376
1376
*MASS, ELSET=MASS_1376
0.0104930783
*ELSET, ELSET=MASS_1377
1377
*MASS, ELSET=MASS_1377
0.0157396174
*ELSET, ELSET=MASS_1378
1378
*MASS, ELSET=MASS_1378
0.0131721621
*ELSET, ELSET=MASS_1379
1379
*MASS, ELSET=MASS_1379
0.00267908381
*ELSET, ELSET=MASS_1380
1380
*MASS, ELSET=MASS_1380
0.00267908381
*ELSET, ELSET=MASS_1381
1381
*MASS, ELSET=MASS_1381
0.0131721621
*ELSET, ELSET=MASS_1382
1382
*MASS, ELSET=MASS_1382
0.0157396174
*ELSET, ELSET=MASS_1383
1383
*MASS, ELSET=MASS_1383
0.0104930783
*ELSET, ELSET=MASS_1384
1384
*MASS, ELSET=MASS_1384
0.0157396174
*ELSET, ELSET=MASS_1385
1385
*MASS, ELSET=MASS_1385
0.0131721621
*ELSET, ELSET=MASS_1386
1386
*MASS, ELSET=MASS_1386
0.00267908381
*ELSET, ELSET=MASS_1387
1387
*MASS, ELSET=MASS_1387
0.00267908381
*ELSET, ELSET=MASS_1388
1388
*MASS, ELSET=MASS_1388
0.0131721621
*ELSET, ELSET=MASS_1389
1389
*MASS, ELSET=MASS_1389
0.0157396174
*ELSET, ELSET=MASS_1390
1390
*MASS, ELSET=MASS_1390
0.0104930783
*ELSET, ELSET=MASS_1391
1391
*MASS, ELSET=MASS_1391
0.0157396174
*ELSET, ELSET=MASS_1392
1392
*MASS, ELSET=MASS_1392
0.0131721621
*ELSET, ELSET=MASS_1393
1393
*MASS, ELSET=MASS_1393
0.00267908381
*ELSET, ELSET=MASS_1394
1394
*MASS, ELSET=MASS_1394
0.00267908381
*ELSET, ELSET=MASS_1395
1395
*MASS, ELSET=MASS_1395
0.0131721621
*ELSET, ELSET=MASS_1396
1396
*MASS, ELSET=MASS_1396
0.0157396174
*ELSET, ELSET=MASS_1397
1397
*MASS, ELSET=MASS_1397
0.0104930783
*ELSET, ELSET=MASS_1398
1398
*MASS, ELSET=MASS_1398
0.0157396174
*ELSET, ELSET=MASS_1399
1399
*MASS, ELSET=MASS_1399
0.0131721621
*ELSET, ELSET=MASS_1400
1400
*MASS, ELSET=MASS_1400
0.00267908381
*ELSET, ELSET=MASS_1401
1401
*MASS, ELSET=MASS_1401
0.00267908381
*ELSET, ELSET=MASS_1402
1402
*MASS, ELSET=MASS_1402
0.0131721621
*ELSET, ELSET=MASS_1403
1403
*MASS, ELSET=MASS_1403
0.0157396174
*ELSET, ELSET=MASS_1404
1404
*MASS, ELSET=MASS_1404
0.0104930783
*ELSET, ELSET=MASS_1405
1405
*MASS, ELSET=MASS_1405
0.0157396174
*ELSET, ELSET=MASS_1406
1406
*MASS, ELSET=MASS_1406
0.0131721621
*ELSET, ELSET=MASS_1407
1407
*MASS, ELSET=MASS_1407
0.00267908381
*ELSET, ELSET=MASS_1408
1408
*MASS, ELSET=MASS_1408
0.00267908381
*ELSET, ELSET=MASS_1409
1409
*MASS, ELSET=MASS_1409
0.0131721621
*ELSET, ELSET=MASS_1410
1410
*MASS, ELSET=MASS_1410
0.0157396174
*ELSET, ELSET=MASS_1411
1411
*MASS, ELSET=MASS_1411
0.0104930783
*ELSET, ELSET=MASS_1412
1412
*MASS, ELSET=MASS_1412
0.0157396174
*ELSET, ELSET=MASS_1413
1413
*MASS, ELSET=MASS_1413
0.0131721621
*ELSET, ELSET=MASS_1414
1414
*MASS, ELSET=MASS_1414
0.00267908381
*ELSET, ELSET=MASS_1415
1415
*MASS, ELSET=MASS_1415
0.00267908381
*ELSET, ELSET=MASS_1416
1416
*MASS, ELSET=MASS_1416
0.0131721621
*ELSET, ELSET=MASS_1417
1417
*MASS, ELSET=MASS_1417
0.0157396174
*ELSET, ELSET=MASS_1418
1418
*MASS, ELSET=MASS_1418
0.0104930783
*ELSET, ELSET=MASS_1419
1419
*MASS, ELSET=MASS_1419
0.0157396174
*ELSET, ELSET=MASS_1420
1420
*MASS, ELSET=MASS_1420
0.0131721621
*ELSET, ELSET=MASS_1421
1421
*MASS, ELSET=MASS_1421
0.00267908381
*ELSET, ELSET=MASS_1422
1422
*MASS, ELSET=MASS_1422
0.00267908381
*ELSET, ELSET=MASS_1423
1423
*MASS, ELSET=MASS_1423
0.0131721621
*ELSET, ELSET=MASS_1424
1424
*MASS, ELSET=MASS_1424
0.0157396174
*ELSET, ELSET=MASS_1425
1425
*MASS, ELSET=MASS_1425
0.0104930783
*ELSET, ELSET=MASS_1426
1426
*MASS, ELSET=MASS_1426
0.0157396174
*ELSET, ELSET=MASS_1427
1427
*MASS, ELSET=MASS_1427
0.0131721621
*ELSET, ELSET=MASS_1428
1428
*MASS, ELSET=MASS_1428
0.00267908381
*ELSET, ELSET=MASS_1429
1429
*MASS, ELSET=MASS_1429
0.00267908381
*ELSET, ELSET=MASS_1430
1430
*MASS, ELSET=MASS_1430
0.0131721621
*ELSET, ELSET=MASS_1431
1431
*MASS, ELSET=MASS_1431
0.0157396174
*ELSET, ELSET=MASS_1432
1432
*MASS, ELSET=MASS_1432
0.0104930783
*ELSET, ELSET=MASS_1433
1433
*MASS, ELSET=MASS_1433
0.0157396174
*ELSET, ELSET=MASS_1434
1434
*MASS, ELSET=MASS_1434
0.0131721621
*ELSET, ELSET=MASS_1435
1435
*MASS, ELSET=MASS_1435
0.00267908381
*ELSET, ELSET=MASS_1436
1436
*MASS, ELSET=MASS_1436
0.00267908381
*ELSET, ELSET=MASS_1437
1437
*MASS, ELSET=MASS_1437
0.0131721621
*ELSET, ELSET=MASS_1438
1438
*MASS, ELSET=MASS_1438
0.0157396174
*ELSET, ELSET=MASS_1439
1439
*MASS, ELSET=MASS_1439
0.0104930783
*ELSET, ELSET=MASS_1440
1440
*MASS, ELSET=MASS_1440
0.0157396174
*ELSET, ELSET=MASS_1441
1441
*MASS, ELSET=MASS_1441
0.0131721621
*ELSET, ELSET=MASS_1442
1442
*MASS, ELSET=MASS_1442
0.00267908381
*ELSET, ELSET=MASS_1443
1443
*MASS, ELSET=MASS_1443
0.00267908381
*ELSET, ELSET=MASS_1444
1444
*MASS, ELSET=MASS_1444
0.0131721621
*ELSET, ELSET=MASS_1445
1445
*MASS, ELSET=MASS_1445
0.0157396174
*ELSET, ELSET=MASS_1446
1446
*MASS, ELSET=MASS_1446
0.0104930783
*ELSET, ELSET=MASS_1447
1447
*MASS, ELSET=MASS_1447
0.0157396174
*ELSET, ELSET=MASS_1448
1448
*MASS, ELSET=MASS_1448
0.0131721621
*ELSET, ELSET=MASS_1449
1449
*MASS, ELSET=MASS_1449
0.00267908381
*ELSET, ELSET=MASS_1450
1450
*MASS, ELSET=MASS_1450
0.00267908381
*ELSET, ELSET=MASS_1451
1451
*MASS, ELSET=MASS_1451
0.0131721621
*ELSET, ELSET=MASS_1452
1452
*MASS, ELSET=MASS_1452
0.0157396174
*ELSET, ELSET=MASS_1453
1453
*MASS, ELSET=MASS_1453
0.0104930783
*ELSET, ELSET=MASS_1454
1454
*MASS, ELSET=MASS_1454
0.0157396174
*ELSET, ELSET=MASS_1455
1455
*MASS, ELSET=MASS_1455
0.0131721621
*ELSET, ELSET=MASS_1456
1456
*MASS, ELSET=MASS_1456
0.00267908381
*ELSET, ELSET=MASS_1457
1457
*MASS, ELSET=MASS_1457
0.00267908381
*ELSET, ELSET=MASS_1458
1458
*MASS, ELSET=MASS_1458
0.0131721621
*ELSET, ELSET=MASS_1459
1459
*MASS, ELSET=MASS_1459
0.0157396174
*ELSET, ELSET=MASS_1460
1460
*MASS, ELSET=MASS_1460
0.0104930783
*ELSET, ELSET=MASS_1461
1461
*MASS, ELSET=MASS_1461
0.0157396174
*ELSET, ELSET=MASS_1462
1462
*MASS, ELSET=MASS_1462
0.0131721621
*ELSET, ELSET=MASS_1463
1463
*MASS, ELSET=MASS_1463
0.00267908381
*ELSET, ELSET=MASS_1464
1464
*MASS, ELSET=MASS_1464
0.00267908381
*ELSET, ELSET=MASS_1465
1465
*MASS, ELSET=MASS_1465
0.0131721621
*ELSET, ELSET=MASS_1466
1466
*MASS, ELSET=MASS_1466
0.0157396174
*ELSET, ELSET=MASS_1467
1467
*MASS, ELSET=MASS_1467
0.0104930783
*ELSET, ELSET=MASS_1468
1468
*MASS, ELSET=MASS_1468
0.0157396174
*ELSET, ELSET=MASS_1469
1469
*MASS, ELSET=MASS_1469
0.0131721621
*ELSET, ELSET=MASS_1470
1470
*MASS, ELSET=MASS_1470
0.00267908381
*ELSET, ELSET=MASS_1471
1471
*MASS, ELSET=MASS_1471
0.00267908381
*ELSET, ELSET=MASS_1472
1472
*MASS, ELSET=MASS_1472
0.0131721621
*ELSET, ELSET=MASS_1473
1473
*MASS, ELSET=MASS_1473
0.0157396174
*ELSET, ELSET=MASS_1474
1474
*MASS, ELSET=MASS_1474
0.0104930783
*ELSET, ELSET=MASS_1475
1475
*MASS, ELSET=MASS_1475
0.0157396174
*ELSET, ELSET=MASS_1476
1476
*MASS, ELSET=MASS_1476
0.0131721621
*ELSET, ELSET=MASS_1477
1477
*MASS, ELSET=MASS_1477
0.00267908381
*ELSET, ELSET=MASS_1478
1478
*MASS, ELSET=MASS_1478
0.00267908381
*ELSET, ELSET=MASS_1479
1479
*MASS, ELSET=MASS_1479
0.0131721621
*ELSET, ELSET=MASS_1480
1480
*MASS, ELSET=MASS_1480
0.0157396174
*ELSET, ELSET=MASS_1481
1481
*MASS, ELSET=MASS_1481
0.0104930783
*ELSET, ELSET=MASS_1482
1482
*MASS, ELSET=MASS_1482
0.0157396174
*ELSET, ELSET=MASS_1483
1483
*MASS, ELSET=MASS_1483
0.0131721621
*ELSET, ELSET=MASS_1484
1484
*MASS, ELSET=MASS_1484
0.00267908381
*ELSET, ELSET=MASS_1485
1485
*MASS, ELSET=MASS_1485
0.00267908381
*ELSET, ELSET=MASS_1486
1486
*MASS, ELSET=MASS_1486
0.0131721621
*ELSET, ELSET=MASS_1487
1487
*MASS, ELSET=MASS_1487
0.0157396174
*ELSET, ELSET=MASS_1488
1488
*MASS, ELSET=MASS_1488
0.0104930783
*ELSET, ELSET=MASS_1489
1489
*MASS, ELSET=MASS_1489
0.0157396174
*ELSET, ELSET=MASS_1490
1490
*MASS, ELSET=MASS_1490
0.0131721621
*ELSET, ELSET=MASS_1491
1491
*MASS, ELSET=MASS_1491
0.00267908381
*ELSET, ELSET=MASS_1492
1492
*MASS, ELSET=MASS_1492
0.00267908381
*ELSET, ELSET=MASS_1493
1493
*MASS, ELSET=MASS_1493
0.0131721621
*ELSET, ELSET=MASS_1494
1494
*MASS, ELSET=MASS_1494
0.0157396174
*ELSET, ELSET=MASS_1495
1495
*MASS, ELSET=MASS_1495
0.0104930783
*ELSET, ELSET=MASS_1496
1496
*MASS, ELSET=MASS_1496
0.0157396174
*ELSET, ELSET=MASS_1497
1497
*MASS, ELSET=MASS_1497
0.0131721621
*ELSET, ELSET=MASS_1498
1498
*MASS, ELSET=MASS_1498
0.00267908381
*ELSET, ELSET=MASS_1499
1499
*MASS, ELSET=MASS_1499
0.00267908381
*ELSET, ELSET=MASS_1500
1500
*MASS, ELSET=MASS_1500
0.0131721621
*ELSET, ELSET=MASS_1501
1501
*MASS, ELSET=MASS_1501
0.0157396174
*ELSET, ELSET=MASS_1502
1502
*MASS, ELSET=MASS_1502
0.0104930783
*ELSET, ELSET=MASS_1503
1503
*MASS, ELSET=MASS_1503
0.0157396174
*ELSET, ELSET=MASS_1504
1504
*MASS, ELSET=MASS_1504
0.0131721621
*ELSET, ELSET=MASS_1505
1505
*MASS, ELSET=MASS_1505
0.00267908381
*ELSET, ELSET=MASS_1506
1506
*MASS, ELSET=MASS_1506
0.00267908381
*ELSET, ELSET=MASS_1507
1507
*MASS, ELSET=MASS_1507
0.0131721621
*ELSET, ELSET=MASS_1508
1508
*MASS, ELSET=MASS_1508
0.0157396174
*ELSET, ELSET=MASS_1509
1509
*MASS, ELSET=MASS_1509
0.0104930783
*ELSET, ELSET=MASS_1510
1510
*MASS, ELSET=MASS_1510
0.0157396174
*ELSET, ELSET=MASS_1511
1511
*MASS, ELSET=MASS_1511
0.0131721621
*ELSET, ELSET=MASS_1512
1512
*MASS, ELSET=MASS_1512
0.00267908381
*ELSET, ELSET=MASS_1513
1513
*MASS, ELSET=MASS_1513
0.00267908381
*ELSET, ELSET=MASS_1514
1514
*MASS, ELSET=MASS_1514
0.0131721621
*ELSET, ELSET=MASS_1515
1515
*MASS, ELSET=MASS_1515
0.0157396174
*ELSET, ELSET=MASS_1516
1516
*MASS, ELSET=MASS_1516
0.0104930783
*ELSET, ELSET=MASS_1517
1517
*MASS, ELSET=MASS_1517
0.0157396174
*ELSET, ELSET=MASS_1518
1518
*MASS, ELSET=MASS_1518
0.0131721621
*ELSET, ELSET=MASS_1519
1519
*MASS, ELSET=MASS_1519
0.00267908381
*ELSET, ELSET=MASS_1520
1520
*MASS, ELSET=MASS_1520
0.00267908381
*ELSET, ELSET=MASS_1521
1521
*MASS, ELSET=MASS_1521
0.0131721621
*ELSET, ELSET=MASS_1522
1522
*MASS, ELSET=MASS_1522
0.0157396174
*ELSET, ELSET=MASS_1523
1523
*MASS, ELSET=MASS_1523
0.0104930783
*ELSET, ELSET=MASS_1524
1524
*MASS, ELSET=MASS_1524
0.0157396174
*ELSET, ELSET=MASS_1525
1525
*MASS, ELSET=MASS_1525
0.0131721621
*ELSET, ELSET=MASS_1526
1526
*MASS, ELSET=MASS_1526
0.00267908381
*ELSET, ELSET=MASS_1527
1527
*MASS, ELSET=MASS_1527
0.00267908381
*ELSET, ELSET=MASS_1528
1528
*MASS, ELSET=MASS_1528
0.0131721621
*ELSET, ELSET=MASS_1529
1529
*MASS, ELSET=MASS_1529
0.0157396174
*ELSET, ELSET=MASS_1530
1530
*MASS, ELSET=MASS_1530
0.0104930783
*ELSET, ELSET=MASS_1531
1531
*MASS, ELSET=MASS_1531
0.0157396174
*ELSET, ELSET=MASS_1532
1532
*MASS, ELSET=MASS_1532
0.0131721621
*ELSET, ELSET=MASS_1533
1533
*MASS, ELSET=MASS_1533
0.00267908381
*ELSET, ELSET=MASS_1534
1534
*MASS, ELSET=MASS_1534
0.00267908381
*ELSET, ELSET=MASS_1535
1535
*MASS, ELSET=MASS_1535
0.0131721621
*ELSET, ELSET=MASS_1536
1536
*MASS, ELSET=MASS_1536
0.0157396174
*ELSET, ELSET=MASS_1537
1537
*MASS, ELSET=MASS_1537
0.0104930783
*ELSET, ELSET=MASS_1538
1538
*MASS, ELSET=MASS_1538
0.0157396174
*ELSET, ELSET=MASS_1539
1539
*MASS, ELSET=MASS_1539
0.0131721621
*ELSET, ELSET=MASS_1540
1540
*MASS, ELSET=MASS_1540
0.00267908381
*ELSET, ELSET=MASS_1541
1541
*MASS, ELSET=MASS_1541
0.00267908381
*ELSET, ELSET=MASS_1542
1542
*MASS, ELSET=MASS_1542
0.0131721621
*ELSET, ELSET=MASS_1543
1543
*MASS, ELSET=MASS_1543
0.0157396174
*ELSET, ELSET=MASS_1544
1544
*MASS, ELSET=MASS_1544
0.0104930783
*ELSET, ELSET=MASS_1545
1545
*MASS, ELSET=MASS_1545
0.0157396174
*ELSET, ELSET=MASS_1546
1546
*MASS, ELSET=MASS_1546
0.0131721621
*ELSET, ELSET=MASS_1547
1547
*MASS, ELSET=MASS_1547
0.00267908381
*ELSET, ELSET=MASS_1548
1548
*MASS, ELSET=MASS_1548
0.00267908381
*ELSET, ELSET=MASS_1549
1549
*MASS, ELSET=MASS_1549
0.0131721621
*ELSET, ELSET=MASS_1550
1550
*MASS, ELSET=MASS_1550
0.0157396174
*ELSET, ELSET=MASS_1551
1551
*MASS, ELSET=MASS_1551
0.0104930783
*ELSET, ELSET=MASS_1552
1552
*MASS, ELSET=MASS_1552
0.0157396174
*ELSET, ELSET=MASS_1553
1553
*MASS, ELSET=MASS_1553
0.0131721621
*ELSET, ELSET=MASS_1554
1554
*MASS, ELSET=MASS_1554
0.00267908381
*ELSET, ELSET=MASS_1555
1555
*MASS, ELSET=MASS_1555
0.00267908381
*ELSET, ELSET=MASS_1556
1556
*MASS, ELSET=MASS_1556
0.0131721621
*ELSET, ELSET=MASS_1557
1557
*MASS, ELSET=MASS_1557
0.0157396174
*ELSET, ELSET=MASS_1558
1558
*MASS, ELSET=MASS_1558
0.0104930783
*ELSET, ELSET=MASS_1559
1559
*MASS, ELSET=MASS_1559
0.0157396174
*ELSET, ELSET=MASS_1560
1560
*MASS, ELSET=MASS_1560
0.0131721621
*ELSET, ELSET=MASS_1561
1561
*MASS, ELSET=MASS_1561
0.00267908381
*ELSET, ELSET=MASS_1562
1562
*MASS, ELSET=MASS_1562
0.00267908381
*ELSET, ELSET=MASS_1563
1563
*MASS, ELSET=MASS_1563
0.0131721621
*ELSET, ELSET=MASS_1564
1564
*MASS, ELSET=MASS_1564
0.0157396174
*ELSET, ELSET=MASS_1565
1565
*MASS, ELSET=MASS_1565
0.0104930783
*ELSET, ELSET=MASS_1566
1566
*MASS, ELSET=MASS_1566
0.0157396174
*ELSET, ELSET=MASS_1567
1567
*MASS, ELSET=MASS_1567
0.0131721621
*ELSET, ELSET=MASS_1568
1568
*MASS, ELSET=MASS_1568
0.00267908381
*ELSET, ELSET=MASS_1569
1569
*MASS, ELSET=MASS_1569
0.00267908381
*ELSET, ELSET=MASS_1570
1570
*MASS, ELSET=MASS_1570
0.0131721621
*ELSET, ELSET=MASS_1571
1571
*MASS, ELSET=MASS_1571
0.0157396174
*ELSET, ELSET=MASS_1572
1572
*MASS, ELSET=MASS_1572
0.0104930783
*ELSET, ELSET=MASS_1573
1573
*MASS, ELSET=MASS_1573
0.0157396174
*ELSET, ELSET=MASS_1574
1574
*MASS, ELSET=MASS_1574
0.0131721621
*ELSET, ELSET=MASS_1575
1575
*MASS, ELSET=MASS_1575
0.00267908381
*ELSET, ELSET=MASS_1576
1576
*MASS, ELSET=MASS_1576
0.00267908381
*ELSET, ELSET=MASS_1577
1577
*MASS, ELSET=MASS_1577
0.0131721621
*ELSET, ELSET=MASS_1578
1578
*MASS, ELSET=MASS_1578
0.0157396174
*ELSET, ELSET=MASS_1579
1579
*MASS, ELSET=MASS_1579
0.0104930783
*ELSET, ELSET=MASS_1580
1580
*MASS, ELSET=MASS_1580
0.0157396174
*ELSET, ELSET=MASS_1581
1581
*MASS, ELSET=MASS_1581
0.0131721621
*ELSET, ELSET=MASS_1582
1582
*MASS, ELSET=MASS_1582
0.00267908381
*ELSET, ELSET=MASS_1583
1583
*MASS, ELSET=MASS_1583
0.00267908381
*ELSET, ELSET=MASS_1584
1584
*MASS, ELSET=MASS_1584
0.0131721621
*ELSET, ELSET=MASS_1585
1585
*MASS, ELSET=MASS_1585
0.0157396174
*ELSET, ELSET=MASS_1586
1586
*MASS, ELSET=MASS_1586
0.0104930783
*ELSET, ELSET=MASS_1587
1587
*MASS, ELSET=MASS_1587
0.0157396174
*ELSET, ELSET=MASS_1588
1588
*MASS, ELSET=MASS_1588
0.0131721621
*ELSET, ELSET=MASS_1589
1589
*MASS, ELSET=MASS_1589
0.00267908381
*ELSET, ELSET=MASS_1590
1590
*MASS, ELSET=MASS_1590
0.00267908381
*ELSET, ELSET=MASS_1591
1591
*MASS, ELSET=MASS_1591
0.0131721621
*ELSET, ELSET=MASS_1592
1592
*MASS, ELSET=MASS_1592
0.0157396174
*ELSET, ELSET=MASS_1593
1593
*MASS, ELSET=MASS_1593
0.0104930783
*ELSET, ELSET=MASS_1594
1594
*MASS, ELSET=MASS_1594
0.0157396174
*ELSET, ELSET=MASS_1595
1595
*MASS, ELSET=MASS_1595
0.0131721621
*ELSET, ELSET=MASS_1596
1596
*MASS, ELSET=MASS_1596
0.00267908381
*ELSET, ELSET=MASS_1597
1597
*MASS, ELSET=MASS_1597
0.00267908381
*ELSET, ELSET=MASS_1598
1598
*MASS, ELSET=MASS_1598
0.0131721621
*ELSET, ELSET=MASS_1599
1599
*MASS, ELSET=MASS_1599
0.0157396174
*ELSET, ELSET=MASS_1600
1600
*MASS, ELSET=MASS_1600
0.0104930783
*ELSET, ELSET=MASS_1601
1601
*MASS, ELSET=MASS_1601
0.0157396174
*ELSET, ELSET=MASS_1602
1602
*MASS, ELSET=MASS_1602
0.0131721621
*ELSET, ELSET=MASS_1603
1603
*MASS, ELSET=MASS_1603
0.00267908381
*ELSET, ELSET=MASS_1604
1604
*MASS, ELSET=MASS_1604
0.00267908381
*ELSET, ELSET=MASS_1605
1605
*MASS, ELSET=MASS_1605
0.0131721621
*ELSET, ELSET=MASS_1606
1606
*MASS, ELSET=MASS_1606
0.0157396174
*ELSET, ELSET=MASS_1607
1607
*MASS, ELSET=MASS_1607
0.0104930783
*ELSET, ELSET=MASS_1608
1608
*MASS, ELSET=MASS_1608
0.0157396174
*ELSET, ELSET=MASS_1609
1609
*MASS, ELSET=MASS_1609
0.0131721621
*ELSET, ELSET=MASS_1610
1610
*MASS, ELSET=MASS_1610
0.00267908381
*ELSET, ELSET=MASS_1611
1611
*MASS, ELSET=MASS_1611
0.00267908381
*ELSET, ELSET=MASS_1612
1612
*MASS, ELSET=MASS_1612
0.0131721621
*ELSET, ELSET=MASS_1613
1613
*MASS, ELSET=MASS_1613
0.0157396174
*ELSET, ELSET=MASS_1614
1614
*MASS, ELSET=MASS_1614
0.0104930783
*ELSET, ELSET=MASS_1615
1615
*MASS, ELSET=MASS_1615
0.0157396174
*ELSET, ELSET=MASS_1616
1616
*MASS, ELSET=MASS_1616
0.0131721621
*ELSET, ELSET=MASS_1617
1617
*MASS, ELSET=MASS_1617
0.00267908381
*ELSET, ELSET=MASS_1618
1618
*MASS, ELSET=MASS_1618
0.00267908381
*ELSET, ELSET=MASS_1619
1619
*MASS, ELSET=MASS_1619
0.0131721621
*ELSET, ELSET=MASS_1620
1620
*MASS, ELSET=MASS_1620
0.0157396174
*ELSET, ELSET=MASS_1621
1621
*MASS, ELSET=MASS_1621
0.0104930783
*ELSET, ELSET=MASS_1622
1622
*MASS, ELSET=MASS_1622
0.0157396174
*ELSET, ELSET=MASS_1623
1623
*MASS, ELSET=MASS_1623
0.0131721621
*ELSET, ELSET=MASS_1624
1624
*MASS, ELSET=MASS_1624
0.00267908381
*ELSET, ELSET=MASS_1625
1625
*MASS, ELSET=MASS_1625
0.00267908381
*ELSET, ELSET=MASS_1626
1626
*MASS, ELSET=MASS_1626
0.0131721621
*ELSET, ELSET=MASS_1627
1627
*MASS, ELSET=MASS_1627
0.0157396174
*ELSET, ELSET=MASS_1628
1628
*MASS, ELSET=MASS_1628
0.0104930783
*ELSET, ELSET=MASS_1629
1629
*MASS, ELSET=MASS_1629
0.0157396174
*ELSET, ELSET=MASS_1630
1630
*MASS, ELSET=MASS_1630
0.0131721621
*ELSET, ELSET=MASS_1631
1631
*MASS, ELSET=MASS_1631
0.00267908381
*ELSET, ELSET=MASS_1632
1632
*MASS, ELSET=MASS_1632
0.00267908381
*ELSET, ELSET=MASS_1633
1633
*MASS, ELSET=MASS_1633
0.0131721621
*ELSET, ELSET=MASS_1634
1634
*MASS, ELSET=MASS_1634
0.0157396174
*ELSET, ELSET=MASS_1635
1635
*MASS, ELSET=MASS_1635
0.0104930783
*ELSET, ELSET=MASS_1636
1636
*MASS, ELSET=MASS_1636
0.0157396174
*ELSET, ELSET=MASS_1637
1637
*MASS, ELSET=MASS_1637
0.0131721621
*ELSET, ELSET=MASS_1638
1638
*MASS, ELSET=MASS_1638
0.00267908381
*ELSET, ELSET=MASS_1639
1639
*MASS, ELSET=MASS_1639
0.00267908381
*ELSET, ELSET=MASS_1640
1640
*MASS, ELSET=MASS_1640
0.0131721621
*ELSET, ELSET=MASS_1641
1641
*MASS, ELSET=MASS_1641
0.0157396174
*ELSET, ELSET=MASS_1642
1642
*MASS, ELSET=MASS_1642
0.0104930783
*ELSET, ELSET=MASS_1643
1643
*MASS, ELSET=MASS_1643
0.0157396174
*ELSET, ELSET=MASS_1644
1644
*MASS, ELSET=MASS_1644
0.0131721621
*ELSET, ELSET=MASS_1645
1645
*MASS, ELSET=MASS_1645
0.00267908381
*ELSET, ELSET=MASS_1646
1646
*MASS, ELSET=MASS_1646
0.00267908381
*ELSET, ELSET=MASS_1647
1647
*MASS, ELSET=MASS_1647
0.0131721621
*ELSET, ELSET=MASS_1648
1648
*MASS, ELSET=MASS_1648
0.0157396174
*ELSET, ELSET=MASS_1649
1649
*MASS, ELSET=MASS_1649
0.0104930783
*ELSET, ELSET=MASS_1650
1650
*MASS, ELSET=MASS_1650
0.0157396174
*ELSET, ELSET=MASS_1651
1651
*MASS, ELSET=MASS_1651
0.0131721621
*ELSET, ELSET=MASS_1652
1652
*MASS, ELSET=MASS_1652
0.00267908381
*ELSET, ELSET=MASS_1653
1653
*MASS, ELSET=MASS_1653
0.00133954191
*ELSET, ELSET=MASS_1654
1654
*MASS, ELSET=MASS_1654
0.00658608104
*ELSET, ELSET=MASS_1655
1655
*MASS, ELSET=MASS_1655
0.0078698087
*ELSET, ELSET=MASS_1656
1656
*MASS, ELSET=MASS_1656
0.00524653914
*ELSET, ELSET=MASS_1657
1657
*MASS, ELSET=MASS_1657
0.0078698087
*ELSET, ELSET=MASS_1658
1658
*MASS, ELSET=MASS_1658
0.00658608104
*ELSET, ELSET=MASS_1659
1659
*MASS, ELSET=MASS_1659
0.00133954191
** BOUNDARY CONDITIONS
*BOUNDARY
TOWER_BASES, 1, 6, 0.
MAIN_CABLE_ANCHORS, 1, 3, 0.
WIND_ANCHORS, 1, 3, 0.
DECK_LEFT_PIN, 1, 3, 0.
DECK_RIGHT_ROLLER, 2, 3, 0.
*INITIAL CONDITIONS, TYPE=TEMPERATURE
NALL, 0.
*STEP, NAME=COMPLETED_STATE, NLGEOM=YES, INC=10000
*CONTROLS, PARAMETERS=FIELD
0.0053, 0.01, , , 0.02, 1.e-5, 1.e-3, 1.e-8
*STATIC
1.0E-4, 1.0, 1.0E-10, 5.0E-3
*TEMPERATURE
NALL, -1.
*DLOAD
E_GRAV, GRAV, 9810., 0., 0., -1.
*CLOAD
1, 3, -13.1409061
2, 3, -64.609455
3, 3, -77.2028234
4, 3, -51.4685489
5, 3, -77.2028234
6, 3, -64.609455
7, 3, -13.1409061
8, 3, -26.2818122
9, 3, -129.21891
10, 3, -154.405647
11, 3, -102.937098
12, 3, -154.405647
13, 3, -129.21891
14, 3, -26.2818122
15, 3, -26.2818122
16, 3, -129.21891
17, 3, -154.405647
18, 3, -102.937098
19, 3, -154.405647
20, 3, -129.21891
21, 3, -26.2818122
22, 3, -26.2818122
23, 3, -129.21891
24, 3, -154.405647
25, 3, -102.937098
26, 3, -154.405647
27, 3, -129.21891
28, 3, -26.2818122
29, 3, -26.2818122
30, 3, -129.21891
31, 3, -154.405647
32, 3, -102.937098
33, 3, -154.405647
34, 3, -129.21891
35, 3, -26.2818122
36, 3, -26.2818122
37, 3, -129.21891
38, 3, -154.405647
39, 3, -102.937098
40, 3, -154.405647
41, 3, -129.21891
42, 3, -26.2818122
43, 3, -26.2818122
44, 3, -129.21891
45, 3, -154.405647
46, 3, -102.937098
47, 3, -154.405647
48, 3, -129.21891
49, 3, -26.2818122
50, 3, -26.2818122
51, 3, -129.21891
52, 3, -154.405647
53, 3, -102.937098
54, 3, -154.405647
55, 3, -129.21891
56, 3, -26.2818122
57, 3, -26.2818122
58, 3, -129.21891
59, 3, -154.405647
60, 3, -102.937098
61, 3, -154.405647
62, 3, -129.21891
63, 3, -26.2818122
64, 3, -26.2818122
65, 3, -129.21891
66, 3, -154.405647
67, 3, -102.937098
68, 3, -154.405647
69, 3, -129.21891
70, 3, -26.2818122
71, 3, -26.2818122
72, 3, -129.21891
73, 3, -154.405647
74, 3, -102.937098
75, 3, -154.405647
76, 3, -129.21891
77, 3, -26.2818122
78, 3, -26.2818122
79, 3, -129.21891
80, 3, -154.405647
81, 3, -102.937098
82, 3, -154.405647
83, 3, -129.21891
84, 3, -26.2818122
85, 3, -26.2818122
86, 3, -129.21891
87, 3, -154.405647
88, 3, -102.937098
89, 3, -154.405647
90, 3, -129.21891
91, 3, -26.2818122
92, 3, -26.2818122
93, 3, -129.21891
94, 3, -154.405647
95, 3, -102.937098
96, 3, -154.405647
97, 3, -129.21891
98, 3, -26.2818122
99, 3, -26.2818122
100, 3, -129.21891
101, 3, -154.405647
102, 3, -102.937098
103, 3, -154.405647
104, 3, -129.21891
105, 3, -26.2818122
106, 3, -26.2818122
107, 3, -129.21891
108, 3, -154.405647
109, 3, -102.937098
110, 3, -154.405647
111, 3, -129.21891
112, 3, -26.2818122
113, 3, -26.2818122
114, 3, -129.21891
115, 3, -154.405647
116, 3, -102.937098
117, 3, -154.405647
118, 3, -129.21891
119, 3, -26.2818122
120, 3, -26.2818122
121, 3, -129.21891
122, 3, -154.405647
123, 3, -102.937098
124, 3, -154.405647
125, 3, -129.21891
126, 3, -26.2818122
127, 3, -26.2818122
128, 3, -129.21891
129, 3, -154.405647
130, 3, -102.937098
131, 3, -154.405647
132, 3, -129.21891
133, 3, -26.2818122
134, 3, -26.2818122
135, 3, -129.21891
136, 3, -154.405647
137, 3, -102.937098
138, 3, -154.405647
139, 3, -129.21891
140, 3, -26.2818122
141, 3, -26.2818122
142, 3, -129.21891
143, 3, -154.405647
144, 3, -102.937098
145, 3, -154.405647
146, 3, -129.21891
147, 3, -26.2818122
148, 3, -26.2818122
149, 3, -129.21891
150, 3, -154.405647
151, 3, -102.937098
152, 3, -154.405647
153, 3, -129.21891
154, 3, -26.2818122
155, 3, -26.2818122
156, 3, -129.21891
157, 3, -154.405647
158, 3, -102.937098
159, 3, -154.405647
160, 3, -129.21891
161, 3, -26.2818122
162, 3, -26.2818122
163, 3, -129.21891
164, 3, -154.405647
165, 3, -102.937098
166, 3, -154.405647
167, 3, -129.21891
168, 3, -26.2818122
169, 3, -26.2818122
170, 3, -129.21891
171, 3, -154.405647
172, 3, -102.937098
173, 3, -154.405647
174, 3, -129.21891
175, 3, -26.2818122
176, 3, -26.2818122
177, 3, -129.21891
178, 3, -154.405647
179, 3, -102.937098
180, 3, -154.405647
181, 3, -129.21891
182, 3, -26.2818122
183, 3, -26.2818122
184, 3, -129.21891
185, 3, -154.405647
186, 3, -102.937098
187, 3, -154.405647
188, 3, -129.21891
189, 3, -26.2818122
190, 3, -26.2818122
191, 3, -129.21891
192, 3, -154.405647
193, 3, -102.937098
194, 3, -154.405647
195, 3, -129.21891
196, 3, -26.2818122
197, 3, -26.2818122
198, 3, -129.21891
199, 3, -154.405647
200, 3, -102.937098
201, 3, -154.405647
202, 3, -129.21891
203, 3, -26.2818122
204, 3, -26.2818122
205, 3, -129.21891
206, 3, -154.405647
207, 3, -102.937098
208, 3, -154.405647
209, 3, -129.21891
210, 3, -26.2818122
211, 3, -26.2818122
212, 3, -129.21891
213, 3, -154.405647
214, 3, -102.937098
215, 3, -154.405647
216, 3, -129.21891
217, 3, -26.2818122
218, 3, -26.2818122
219, 3, -129.21891
220, 3, -154.405647
221, 3, -102.937098
222, 3, -154.405647
223, 3, -129.21891
224, 3, -26.2818122
225, 3, -26.2818122
226, 3, -129.21891
227, 3, -154.405647
228, 3, -102.937098
229, 3, -154.405647
230, 3, -129.21891
231, 3, -26.2818122
232, 3, -26.2818122
233, 3, -129.21891
234, 3, -154.405647
235, 3, -102.937098
236, 3, -154.405647
237, 3, -129.21891
238, 3, -26.2818122
239, 3, -26.2818122
240, 3, -129.21891
241, 3, -154.405647
242, 3, -102.937098
243, 3, -154.405647
244, 3, -129.21891
245, 3, -26.2818122
246, 3, -26.2818122
247, 3, -129.21891
248, 3, -154.405647
249, 3, -102.937098
250, 3, -154.405647
251, 3, -129.21891
252, 3, -26.2818122
253, 3, -26.2818122
254, 3, -129.21891
255, 3, -154.405647
256, 3, -102.937098
257, 3, -154.405647
258, 3, -129.21891
259, 3, -26.2818122
260, 3, -26.2818122
261, 3, -129.21891
262, 3, -154.405647
263, 3, -102.937098
264, 3, -154.405647
265, 3, -129.21891
266, 3, -26.2818122
267, 3, -26.2818122
268, 3, -129.21891
269, 3, -154.405647
270, 3, -102.937098
271, 3, -154.405647
272, 3, -129.21891
273, 3, -26.2818122
274, 3, -26.2818122
275, 3, -129.21891
276, 3, -154.405647
277, 3, -102.937098
278, 3, -154.405647
279, 3, -129.21891
280, 3, -26.2818122
281, 3, -26.2818122
282, 3, -129.21891
283, 3, -154.405647
284, 3, -102.937098
285, 3, -154.405647
286, 3, -129.21891
287, 3, -26.2818122
288, 3, -26.2818122
289, 3, -129.21891
290, 3, -154.405647
291, 3, -102.937098
292, 3, -154.405647
293, 3, -129.21891
294, 3, -26.2818122
295, 3, -26.2818122
296, 3, -129.21891
297, 3, -154.405647
298, 3, -102.937098
299, 3, -154.405647
300, 3, -129.21891
301, 3, -26.2818122
302, 3, -26.2818122
303, 3, -129.21891
304, 3, -154.405647
305, 3, -102.937098
306, 3, -154.405647
307, 3, -129.21891
308, 3, -26.2818122
309, 3, -26.2818122
310, 3, -129.21891
311, 3, -154.405647
312, 3, -102.937098
313, 3, -154.405647
314, 3, -129.21891
315, 3, -26.2818122
316, 3, -26.2818122
317, 3, -129.21891
318, 3, -154.405647
319, 3, -102.937098
320, 3, -154.405647
321, 3, -129.21891
322, 3, -26.2818122
323, 3, -26.2818122
324, 3, -129.21891
325, 3, -154.405647
326, 3, -102.937098
327, 3, -154.405647
328, 3, -129.21891
329, 3, -26.2818122
330, 3, -26.2818122
331, 3, -129.21891
332, 3, -154.405647
333, 3, -102.937098
334, 3, -154.405647
335, 3, -129.21891
336, 3, -26.2818122
337, 3, -26.2818122
338, 3, -129.21891
339, 3, -154.405647
340, 3, -102.937098
341, 3, -154.405647
342, 3, -129.21891
343, 3, -26.2818122
344, 3, -26.2818122
345, 3, -129.21891
346, 3, -154.405647
347, 3, -102.937098
348, 3, -154.405647
349, 3, -129.21891
350, 3, -26.2818122
351, 3, -26.2818122
352, 3, -129.21891
353, 3, -154.405647
354, 3, -102.937098
355, 3, -154.405647
356, 3, -129.21891
357, 3, -26.2818122
358, 3, -26.2818122
359, 3, -129.21891
360, 3, -154.405647
361, 3, -102.937098
362, 3, -154.405647
363, 3, -129.21891
364, 3, -26.2818122
365, 3, -26.2818122
366, 3, -129.21891
367, 3, -154.405647
368, 3, -102.937098
369, 3, -154.405647
370, 3, -129.21891
371, 3, -26.2818122
372, 3, -26.2818122
373, 3, -129.21891
374, 3, -154.405647
375, 3, -102.937098
376, 3, -154.405647
377, 3, -129.21891
378, 3, -26.2818122
379, 3, -26.2818122
380, 3, -129.21891
381, 3, -154.405647
382, 3, -102.937098
383, 3, -154.405647
384, 3, -129.21891
385, 3, -26.2818122
386, 3, -26.2818122
387, 3, -129.21891
388, 3, -154.405647
389, 3, -102.937098
390, 3, -154.405647
391, 3, -129.21891
392, 3, -26.2818122
393, 3, -26.2818122
394, 3, -129.21891
395, 3, -154.405647
396, 3, -102.937098
397, 3, -154.405647
398, 3, -129.21891
399, 3, -26.2818122
400, 3, -26.2818122
401, 3, -129.21891
402, 3, -154.405647
403, 3, -102.937098
404, 3, -154.405647
405, 3, -129.21891
406, 3, -26.2818122
407, 3, -26.2818122
408, 3, -129.21891
409, 3, -154.405647
410, 3, -102.937098
411, 3, -154.405647
412, 3, -129.21891
413, 3, -26.2818122
414, 3, -26.2818122
415, 3, -129.21891
416, 3, -154.405647
417, 3, -102.937098
418, 3, -154.405647
419, 3, -129.21891
420, 3, -26.2818122
421, 3, -26.2818122
422, 3, -129.21891
423, 3, -154.405647
424, 3, -102.937098
425, 3, -154.405647
426, 3, -129.21891
427, 3, -26.2818122
428, 3, -26.2818122
429, 3, -129.21891
430, 3, -154.405647
431, 3, -102.937098
432, 3, -154.405647
433, 3, -129.21891
434, 3, -26.2818122
435, 3, -26.2818122
436, 3, -129.21891
437, 3, -154.405647
438, 3, -102.937098
439, 3, -154.405647
440, 3, -129.21891
441, 3, -26.2818122
442, 3, -26.2818122
443, 3, -129.21891
444, 3, -154.405647
445, 3, -102.937098
446, 3, -154.405647
447, 3, -129.21891
448, 3, -26.2818122
449, 3, -26.2818122
450, 3, -129.21891
451, 3, -154.405647
452, 3, -102.937098
453, 3, -154.405647
454, 3, -129.21891
455, 3, -26.2818122
456, 3, -26.2818122
457, 3, -129.21891
458, 3, -154.405647
459, 3, -102.937098
460, 3, -154.405647
461, 3, -129.21891
462, 3, -26.2818122
463, 3, -26.2818122
464, 3, -129.21891
465, 3, -154.405647
466, 3, -102.937098
467, 3, -154.405647
468, 3, -129.21891
469, 3, -26.2818122
470, 3, -26.2818122
471, 3, -129.21891
472, 3, -154.405647
473, 3, -102.937098
474, 3, -154.405647
475, 3, -129.21891
476, 3, -26.2818122
477, 3, -26.2818122
478, 3, -129.21891
479, 3, -154.405647
480, 3, -102.937098
481, 3, -154.405647
482, 3, -129.21891
483, 3, -26.2818122
484, 3, -26.2818122
485, 3, -129.21891
486, 3, -154.405647
487, 3, -102.937098
488, 3, -154.405647
489, 3, -129.21891
490, 3, -26.2818122
491, 3, -26.2818122
492, 3, -129.21891
493, 3, -154.405647
494, 3, -102.937098
495, 3, -154.405647
496, 3, -129.21891
497, 3, -26.2818122
498, 3, -26.2818122
499, 3, -129.21891
500, 3, -154.405647
501, 3, -102.937098
502, 3, -154.405647
503, 3, -129.21891
504, 3, -26.2818122
505, 3, -26.2818122
506, 3, -129.21891
507, 3, -154.405647
508, 3, -102.937098
509, 3, -154.405647
510, 3, -129.21891
511, 3, -26.2818122
512, 3, -26.2818122
513, 3, -129.21891
514, 3, -154.405647
515, 3, -102.937098
516, 3, -154.405647
517, 3, -129.21891
518, 3, -26.2818122
519, 3, -26.2818122
520, 3, -129.21891
521, 3, -154.405647
522, 3, -102.937098
523, 3, -154.405647
524, 3, -129.21891
525, 3, -26.2818122
526, 3, -26.2818122
527, 3, -129.21891
528, 3, -154.405647
529, 3, -102.937098
530, 3, -154.405647
531, 3, -129.21891
532, 3, -26.2818122
533, 3, -26.2818122
534, 3, -129.21891
535, 3, -154.405647
536, 3, -102.937098
537, 3, -154.405647
538, 3, -129.21891
539, 3, -26.2818122
540, 3, -26.2818122
541, 3, -129.21891
542, 3, -154.405647
543, 3, -102.937098
544, 3, -154.405647
545, 3, -129.21891
546, 3, -26.2818122
547, 3, -26.2818122
548, 3, -129.21891
549, 3, -154.405647
550, 3, -102.937098
551, 3, -154.405647
552, 3, -129.21891
553, 3, -26.2818122
554, 3, -26.2818122
555, 3, -129.21891
556, 3, -154.405647
557, 3, -102.937098
558, 3, -154.405647
559, 3, -129.21891
560, 3, -26.2818122
561, 3, -26.2818122
562, 3, -129.21891
563, 3, -154.405647
564, 3, -102.937098
565, 3, -154.405647
566, 3, -129.21891
567, 3, -26.2818122
568, 3, -26.2818122
569, 3, -129.21891
570, 3, -154.405647
571, 3, -102.937098
572, 3, -154.405647
573, 3, -129.21891
574, 3, -26.2818122
575, 3, -13.1409061
576, 3, -64.609455
577, 3, -77.2028234
578, 3, -51.4685489
579, 3, -77.2028234
580, 3, -64.609455
581, 3, -13.1409061
*NODE PRINT, NSET=MONITOR, FREQUENCY=1
U, RF
*EL PRINT, ELSET=MAIN_CABLES, FREQUENCY=1
S, E
*EL PRINT, ELSET=HANGERS, FREQUENCY=1
S, E
*EL PRINT, ELSET=LONG_GIRDERS, FREQUENCY=1
S, E
*NODE FILE, FREQUENCY=1
U, RF
*EL FILE, FREQUENCY=1
S, E
*END STEP
