** UCAB3 frozen residual coupon. Expected end reactions [-1000,+1000] N.
*HEADING
UCAB3 frozen residual coupon
*NODE
1, 0.0, 0.0, 0.0
2, 1000.0, 0.0, 0.0
*USER ELEMENT, TYPE=UCAB3, NODES=2, INTEGRATION POINTS=1, MAXDOF=3
*ELEMENT, TYPE=UCAB3, ELSET=E_ROPE
1, 1, 2
*MATERIAL, NAME=MSTEEL
*ELASTIC
200000.0, 0.3
*DENSITY
7.85e-9
*ELSET, ELSET=CAB1
1
*USER SECTION, ELSET=CAB1, MATERIAL=MSTEEL, CONSTANTS=3
1.000000000000e+06, 1.000000000000e+03, 1.000000000000e-06
*BOUNDARY
1, 1, 3
2, 1, 3
*STEP
*STATIC
*NODE PRINT, NSET=NALL
RF
*EL PRINT, ELSET=E_ROPE
S
*END STEP
