** UCAB3 axial coupon. Requires patched CCX with TYPE=UCAB3.
*HEADING
UCAB3 axial coupon
*NODE
1, 0.0, 0.0, 0.0
2, 1000.0, 0.0, 0.0
*USER ELEMENT, TYPE=UCAB3, NODES=2, INTEGRATION POINTS=1, MAXDOF=3
*ELEMENT, TYPE=UCAB3, ELSET=E_AXIAL
1, 1, 2
*MATERIAL, NAME=MSTEEL
*ELASTIC
200000.0, 0.3
*DENSITY
7.85e-9
*ELSET, ELSET=CAB1
1
*USER SECTION, ELSET=CAB1, MATERIAL=MSTEEL, CONSTANTS=3
1.000000000000e+06, 0.000000000000e+00, 1.000000000000e-06
*BOUNDARY
1, 1, 3
*STEP
*STATIC
*BOUNDARY
2, 1, 1, 0.1
*NODE PRINT, NSET=NALL
RF
*EL PRINT, ELSET=E_AXIAL
S
*END STEP
