*HEADING
Original MCT independent native equilibrium verification
*NODE,NSET=ALL
1,8.52105000000e+02,0.00000000000e+00,2.81520000000e+01
2,8.74000000000e+02,0.00000000000e+00,5.46538346254e+01
3,8.74962000000e+02,0.00000000000e+00,5.58230000000e+01
4,8.76000000000e+02,0.00000000000e+00,5.65514072180e+01
5,8.79000000000e+02,0.00000000000e+00,5.86586687671e+01
6,8.79888000000e+02,0.00000000000e+00,5.92830000000e+01
7,8.81000000000e+02,0.00000000000e+00,5.96283306130e+01
8,8.86000000000e+02,0.00000000000e+00,6.11855424684e+01
9,8.91000000000e+02,0.00000000000e+00,6.27813673503e+01
10,8.97000000000e+02,0.00000000000e+00,6.47074206858e+01
11,9.00000000000e+02,0.00000000000e+00,6.56747280987e+01
12,9.03000000000e+02,0.00000000000e+00,6.66450067465e+01
13,9.09000000000e+02,0.00000000000e+00,6.85942345945e+01
14,9.15000000000e+02,0.00000000000e+00,7.05554219553e+01
15,9.18000000000e+02,0.00000000000e+00,7.15403037398e+01
16,9.21000000000e+02,0.00000000000e+00,7.25281612472e+01
17,9.27000000000e+02,0.00000000000e+00,7.45144691686e+01
18,9.33000000000e+02,0.00000000000e+00,7.65127556924e+01
19,9.36000000000e+02,0.00000000000e+00,7.75161949622e+01
20,9.39000000000e+02,0.00000000000e+00,7.85226147718e+01
21,9.45000000000e+02,0.00000000000e+00,8.05441502075e+01
22,9.51000000000e+02,0.00000000000e+00,8.25776826833e+01
23,9.54000000000e+02,0.00000000000e+00,8.35987525609e+01
24,9.57000000000e+02,0.00000000000e+00,8.46228076293e+01
25,9.63000000000e+02,0.00000000000e+00,8.66796262135e+01
26,9.69000000000e+02,0.00000000000e+00,8.87484605958e+01
27,9.72000000000e+02,0.00000000000e+00,8.97871891863e+01
28,9.75000000000e+02,0.00000000000e+00,9.08289076996e+01
29,9.78000000000e+02,0.00000000000e+00,9.18736499775e+01
30,9.81000000000e+02,0.00000000000e+00,9.29219754269e+01
31,9.87000000000e+02,0.00000000000e+00,9.50280793266e+01
32,9.90000000000e+02,0.00000000000e+00,9.60854509924e+01
33,9.93000000000e+02,0.00000000000e+00,9.71458176541e+01
34,9.99000000000e+02,0.00000000000e+00,9.92752860792e+01
35,1.00500000000e+03,0.00000000000e+00,1.01416809841e+02
36,1.00800000000e+03,0.00000000000e+00,1.02491899457e+02
37,1.01100000000e+03,0.00000000000e+00,1.03569988964e+02
38,1.01700000000e+03,0.00000000000e+00,1.05734916410e+02
39,1.02300000000e+03,0.00000000000e+00,1.07911918933e+02
40,1.02600000000e+03,0.00000000000e+00,1.09004756074e+02
41,1.02900000000e+03,0.00000000000e+00,1.10100598080e+02
42,1.03500000000e+03,0.00000000000e+00,1.12301044092e+02
43,1.04100000000e+03,0.00000000000e+00,1.14554186453e+02
44,1.04400000000e+03,0.00000000000e+00,1.15685111347e+02
45,1.04700000000e+03,0.00000000000e+00,1.16819052028e+02
46,1.05300000000e+03,0.00000000000e+00,1.19095725239e+02
47,1.05900000000e+03,0.00000000000e+00,1.21384537615e+02
48,1.06200000000e+03,0.00000000000e+00,1.22533306038e+02
49,1.06500000000e+03,0.00000000000e+00,1.23685095475e+02
50,1.07100000000e+03,0.00000000000e+00,1.25997480533e+02
51,1.07700000000e+03,0.00000000000e+00,1.28322025832e+02
52,1.08000000000e+03,0.00000000000e+00,1.29488669352e+02
53,1.08300000000e+03,0.00000000000e+00,1.30658339197e+02
54,1.08900000000e+03,0.00000000000e+00,1.33006499654e+02
55,1.09200000000e+03,0.00000000000e+00,1.34185353827e+02
56,1.09500000000e+03,0.00000000000e+00,1.35367829344e+02
57,1.09800000000e+03,0.00000000000e+00,1.36553368747e+02
58,1.10100000000e+03,0.00000000000e+00,1.37741939931e+02
59,1.10700000000e+03,0.00000000000e+00,1.40127852356e+02
60,1.11300000000e+03,0.00000000000e+00,1.42525969315e+02
61,1.11600000000e+03,0.00000000000e+00,1.43729448817e+02
62,1.11900000000e+03,0.00000000000e+00,1.44935965576e+02
63,1.12500000000e+03,0.00000000000e+00,1.47357786975e+02
64,1.13100000000e+03,0.00000000000e+00,1.49791834971e+02
65,1.13400000000e+03,0.00000000000e+00,1.51013287636e+02
66,1.13700000000e+03,0.00000000000e+00,1.52237783117e+02
67,1.14300000000e+03,0.00000000000e+00,1.54695580005e+02
68,1.14900000000e+03,0.00000000000e+00,1.57165625882e+02
69,1.15200000000e+03,0.00000000000e+00,1.58406040218e+02
70,1.15500000000e+03,0.00000000000e+00,1.59649503312e+02
71,1.16100000000e+03,0.00000000000e+00,1.62145254669e+02
72,1.16700000000e+03,0.00000000000e+00,1.64653278941e+02
73,1.17000000000e+03,0.00000000000e+00,1.65911735853e+02
74,1.17300000000e+03,0.00000000000e+00,1.67173247247e+02
75,1.17900000000e+03,0.00000000000e+00,1.69705113710e+02
76,1.18500000000e+03,0.00000000000e+00,1.72249276144e+02
77,1.18800000000e+03,0.00000000000e+00,1.73525810188e+02
78,1.19100000000e+03,0.00000000000e+00,1.74805404519e+02
79,1.19700000000e+03,0.00000000000e+00,1.77373455581e+02
80,1.20300000000e+03,0.00000000000e+00,1.79953825998e+02
81,1.20600000000e+03,0.00000000000e+00,1.81248472216e+02
82,1.20900000000e+03,0.00000000000e+00,1.82566482182e+02
83,1.21500000000e+03,0.00000000000e+00,1.85211404887e+02
84,1.22100000000e+03,0.00000000000e+00,1.87868697544e+02
85,1.22400000000e+03,0.00000000000e+00,1.89201822669e+02
86,1.22700000000e+03,0.00000000000e+00,1.90538026713e+02
87,1.23300000000e+03,0.00000000000e+00,1.93219356975e+02
88,1.23900000000e+03,0.00000000000e+00,1.95913081589e+02
89,1.24200000000e+03,0.00000000000e+00,1.97264431306e+02
90,1.24500000000e+03,0.00000000000e+00,1.98618866084e+02
91,1.25100000000e+03,0.00000000000e+00,2.01336677428e+02
92,1.25700000000e+03,0.00000000000e+00,2.04066907851e+02
93,1.26000000000e+03,0.00000000000e+00,2.05436519223e+02
94,1.26300000000e+03,0.00000000000e+00,2.06809221881e+02
95,1.26900000000e+03,0.00000000000e+00,2.09565499159e+02
96,1.27500000000e+03,0.00000000000e+00,2.12334221888e+02
97,1.27800000000e+03,0.00000000000e+00,2.13723088771e+02
98,1.28100000000e+03,0.00000000000e+00,2.15115053580e+02
99,1.28700000000e+03,0.00000000000e+00,2.17907965902e+02
100,1.29300000000e+03,0.00000000000e+00,2.20713349073e+02
101,1.29600000000e+03,0.00000000000e+00,2.22120555215e+02
102,1.29900000000e+03,0.00000000000e+00,2.23530865677e+02
103,1.30500000000e+03,0.00000000000e+00,2.26360489566e+02
104,1.31100000000e+03,0.00000000000e+00,2.29202610029e+02
105,1.31400000000e+03,0.00000000000e+00,2.30628193996e+02
106,1.31700000000e+03,0.00000000000e+00,2.32056888758e+02
107,1.32000930000e+03,0.00000000000e+00,2.33493171379e+02
108,1.32300000000e+03,0.00000000000e+00,2.34924269813e+02
109,1.32900000000e+03,0.00000000000e+00,2.37805116472e+02
110,1.33200000000e+03,0.00000000000e+00,2.39250073344e+02
111,1.33500000000e+03,0.00000000000e+00,2.40698147910e+02
112,1.34100000000e+03,0.00000000000e+00,2.43603342244e+02
113,1.34700000000e+03,0.00000000000e+00,2.46521086972e+02
114,1.35000000000e+03,0.00000000000e+00,2.47984502346e+02
115,1.35300000000e+03,0.00000000000e+00,2.49451042058e+02
116,1.35900000000e+03,0.00000000000e+00,2.52393187591e+02
117,1.36500000000e+03,0.00000000000e+00,2.55347910248e+02
118,1.36800000000e+03,0.00000000000e+00,2.56829824196e+02
119,1.37100000000e+03,0.00000000000e+00,2.58314869211e+02
120,1.37700000000e+03,0.00000000000e+00,2.61294046462e+02
121,1.38300000000e+03,0.00000000000e+00,2.64326433143e+02
122,1.38600000000e+03,0.00000000000e+00,2.65847199679e+02
123,1.38900000000e+03,0.00000000000e+00,2.67371111628e+02
124,1.39500000000e+03,0.00000000000e+00,2.70428067637e+02
125,1.40100000000e+03,0.00000000000e+00,2.73497685544e+02
126,1.40400000000e+03,0.00000000000e+00,2.75037077742e+02
127,1.40700000000e+03,0.00000000000e+00,2.76579622337e+02
128,1.41300000000e+03,0.00000000000e+00,2.79673865408e+02
129,1.41900000000e+03,0.00000000000e+00,2.82780798463e+02
130,1.42200000000e+03,0.00000000000e+00,2.84338858427e+02
131,1.42500000000e+03,0.00000000000e+00,2.85900077852e+02
132,1.43100000000e+03,0.00000000000e+00,2.89031692569e+02
133,1.43400930000e+03,0.00000000000e+00,2.90607337274e+02
134,1.43700000000e+03,0.00000000000e+00,2.92176987532e+02
135,1.44000000000e+03,0.00000000000e+00,2.93754713250e+02
136,1.44300000000e+03,0.00000000000e+00,2.95335605945e+02
137,1.44900000000e+03,0.00000000000e+00,2.98506590538e+02
138,1.45500000000e+03,0.00000000000e+00,3.01690323753e+02
139,1.45800000000e+03,0.00000000000e+00,3.03286805146e+02
140,1.46100000000e+03,0.00000000000e+00,3.04886460750e+02
141,1.46700000000e+03,0.00000000000e+00,3.08094993587e+02
142,1.47300000000e+03,0.00000000000e+00,3.11316304144e+02
143,1.47600000000e+03,0.00000000000e+00,3.12931584833e+02
144,1.47900000000e+03,0.00000000000e+00,3.14550047053e+02
145,1.48500000000e+03,0.00000000000e+00,3.17796215761e+02
146,1.49100000000e+03,0.00000000000e+00,3.21055191621e+02
147,1.49400000000e+03,0.00000000000e+00,3.22690270760e+02
148,1.49700000000e+03,0.00000000000e+00,3.24328539210e+02
149,1.50300000000e+03,0.00000000000e+00,3.27614344396e+02
150,1.50900000000e+03,0.00000000000e+00,3.30912988015e+02
151,1.51500000000e+03,0.00000000000e+00,3.34223753318e+02
152,1.52000000000e+03,0.00000000000e+00,3.37025419987e+02
153,1.52500000000e+03,0.00000000000e+00,3.39834988463e+02
154,1.52635900000e+03,0.00000000000e+00,3.40600000000e+02
155,1.52800000000e+03,4.34237458391e-20,3.40596402534e+02
156,1.54100000000e+03,1.11207644657e-24,3.40596328788e+02
157,1.54267900000e+03,0.00000000000e+00,3.40600000000e+02
158,1.54400000000e+03,4.35820230550e-17,3.39857229118e+02
159,1.54800000000e+03,1.75311796227e-16,3.37611782162e+02
160,1.55330000000e+03,3.54026939415e-16,3.34645000000e+02
161,1.56100000000e+03,3.35043212286e-16,3.31649211635e+02
162,1.57000000000e+03,3.13379995222e-16,3.28171520493e+02
163,1.57900000000e+03,2.91717977318e-16,3.24719368891e+02
164,1.58800000000e+03,2.70056416558e-16,3.21292734810e+02
165,1.59700000000e+03,2.48395551721e-16,3.17891596393e+02
166,1.60000000000e+03,2.41164024275e-16,3.16763772632e+02
167,1.60600000000e+03,2.26718980634e-16,3.14517762670e+02
168,1.61500000000e+03,2.05059681626e-16,3.11170339465e+02
169,1.62400000000e+03,1.83401211938e-16,3.07848344985e+02
170,1.63300000000e+03,1.61743485895e-16,3.04551758030e+02
171,1.64200000000e+03,1.40086354714e-16,3.01280557563e+02
172,1.65100000000e+03,1.18429950934e-16,2.98034722710e+02
173,1.65700000000e+03,1.03985962037e-16,2.95885150175e+02
174,1.66000000000e+03,9.67666646153e-17,2.94815164030e+02
175,1.66900000000e+03,7.51124598991e-17,2.91622788073e+02
176,1.67800000000e+03,5.34580177371e-17,2.88455713827e+02
177,1.68700000000e+03,3.18041011829e-17,2.85313921073e+02
178,1.69600000000e+03,1.01509017699e-17,2.82197389753e+02
179,1.70500000000e+03,-1.15014532707e-17,2.79106099969e+02
180,1.71400000000e+03,-3.31579519235e-17,2.76040031985e+02
181,1.72300000000e+03,-5.48087639664e-17,2.73058476808e+02
182,1.73200000000e+03,-7.64589904045e-17,2.70102059306e+02
183,1.74100000000e+03,-9.81092209024e-17,2.67170760595e+02
184,1.75000000000e+03,-1.19758930346e-16,2.64264561956e+02
185,1.75900000000e+03,-1.41408167436e-16,2.61383444822e+02
186,1.76800000000e+03,-1.63057060861e-16,2.58527390786e+02
187,1.77100930000e+03,-1.70282680784e-16,2.57578271455e+02
188,1.77700000000e+03,-1.84704328841e-16,2.55698239968e+02
189,1.78600000000e+03,-2.06352849593e-16,2.52895046746e+02
190,1.79500000000e+03,-2.28001172501e-16,2.50116860373e+02
191,1.80400000000e+03,-2.49648664150e-16,2.47363663097e+02
192,1.81300000000e+03,-2.71296117457e-16,2.44635437322e+02
193,1.82200000000e+03,-2.92943222027e-16,2.41932165618e+02
194,1.82800930000e+03,-3.07410856851e-16,2.40141307445e+02
195,1.83100000000e+03,-3.14587531009e-16,2.39254759084e+02
196,1.84000000000e+03,-3.36234286199e-16,2.36604133806e+02
197,1.84900000000e+03,-3.57880966938e-16,2.33978409353e+02
198,1.85800000000e+03,-3.79527631009e-16,2.31377568945e+02
199,1.86700000000e+03,-4.01174034108e-16,2.28801595957e+02
200,1.87600000000e+03,-4.22820554225e-16,2.26250473923e+02
201,1.88500000000e+03,-4.44466890401e-16,2.23724186533e+02
202,1.89400000000e+03,-4.66113392554e-16,2.21282032345e+02
203,1.90300000000e+03,-4.87759862232e-16,2.18864643039e+02
204,1.91200000000e+03,-5.09406371469e-16,2.16472003158e+02
205,1.92100000000e+03,-5.31052616025e-16,2.14104097403e+02
206,1.93000000000e+03,-5.52699267245e-16,2.11760910632e+02
207,1.93900000000e+03,-5.74345933174e-16,2.09442427863e+02
208,1.94200930000e+03,-5.81558505200e-16,2.08672977942e+02
209,1.94800000000e+03,-5.95987904421e-16,2.07150492741e+02
210,1.95700000000e+03,-6.17634944274e-16,2.04884163293e+02
211,1.96600000000e+03,-6.39282223202e-16,2.02642492207e+02
212,1.97500000000e+03,-6.60929510169e-16,2.00425465148e+02
213,1.98400000000e+03,-6.82577033807e-16,1.98233067936e+02
214,1.99300000000e+03,-7.04224816658e-16,1.96065286547e+02
215,1.99900930000e+03,-7.18702153389e-16,1.94631786117e+02
216,2.00200000000e+03,-7.25866399149e-16,1.93923035434e+02
217,2.01100000000e+03,-7.47515010810e-16,1.91807234544e+02
218,2.02000000000e+03,-7.69163463688e-16,1.89716006826e+02
219,2.02900000000e+03,-7.90812492014e-16,1.87649338902e+02
220,2.03800000000e+03,-8.12461492860e-16,1.85607217552e+02
221,2.04700000000e+03,-8.34111033031e-16,1.83589629713e+02
222,2.05600000000e+03,-8.55760607061e-16,1.81596562479e+02
223,2.06500000000e+03,-8.77411788741e-16,1.79687322481e+02
224,2.07400000000e+03,-8.99063431527e-16,1.77802547884e+02
225,2.08300000000e+03,-9.20715647856e-16,1.75942226628e+02
226,2.09200000000e+03,-9.42367799342e-16,1.74106346814e+02
227,2.10100000000e+03,-9.64021109424e-16,1.72294896692e+02
228,2.11000000000e+03,-9.85674751193e-16,1.70507864674e+02
229,2.11300930000e+03,-9.92875745662e-16,1.69916051774e+02
230,2.11900000000e+03,-1.00732007331e-15,1.68747097914e+02
231,2.12800000000e+03,-1.02897459696e-15,1.67011658071e+02
232,2.13700000000e+03,-1.05062935808e-15,1.65300601235e+02
233,2.14600000000e+03,-1.07228438104e-15,1.63613916459e+02
234,2.15500000000e+03,-1.09394016024e-15,1.61951592949e+02
235,2.16400000000e+03,-1.11559654771e-15,1.60313620069e+02
236,2.17000930000e+03,-1.13009005112e-15,1.59233726770e+02
237,2.17300000000e+03,-1.13724333812e-15,1.58700915533e+02
238,2.18200000000e+03,-1.15890098917e-15,1.57114403271e+02
239,2.19100000000e+03,-1.18055911392e-15,1.55552209506e+02
240,2.20000000000e+03,-1.20221796481e-15,1.54014324242e+02
241,2.20900000000e+03,-1.22387685462e-15,1.52500737636e+02
242,2.21800000000e+03,-1.24553674210e-15,1.51011440004e+02
243,2.22700000000e+03,-1.26719722136e-15,1.49546421816e+02
244,2.23600000000e+03,-1.28885938377e-15,1.48164998133e+02
245,2.24500000000e+03,-1.31052228874e-15,1.46807813401e+02
246,2.25400000000e+03,-1.33218583154e-15,1.45474858935e+02
247,2.26300000000e+03,-1.35384985526e-15,1.44166126206e+02
248,2.27200000000e+03,-1.37551447111e-15,1.42881606836e+02
249,2.27800930000e+03,-1.39002018124e-15,1.42037640854e+02
250,2.28100000000e+03,-1.39716753010e-15,1.41622220683e+02
251,2.29000000000e+03,-1.41883336343e-15,1.40388894420e+02
252,2.29900000000e+03,-1.44049982813e-15,1.39179756419e+02
253,2.30800000000e+03,-1.46216684474e-15,1.37994798940e+02
254,2.31700000000e+03,-1.48383456545e-15,1.36834014401e+02
255,2.32600000000e+03,-1.50550276551e-15,1.35697395373e+02
256,2.32900930000e+03,-1.51269273495e-15,1.35322999978e+02
257,2.33500000000e+03,-1.52715919734e-15,1.34586793263e+02
258,2.34400000000e+03,-1.54882866654e-15,1.33501274312e+02
259,2.35300000000e+03,-1.57049883823e-15,1.32439898717e+02
260,2.36200000000e+03,-1.59216927540e-15,1.31402659687e+02
261,2.37100000000e+03,-1.61384045026e-15,1.30389550585e+02
262,2.37800930000e+03,-1.63074824629e-15,1.29617422360e+02
263,2.38000000000e+03,-1.63550275570e-15,1.29413688899e+02
264,2.38900000000e+03,-1.65717609689e-15,1.28508146115e+02
265,2.39800000000e+03,-1.67885015093e-15,1.27626699732e+02
266,2.40700000000e+03,-1.70052465641e-15,1.26769344105e+02
267,2.41600000000e+03,-1.72219961720e-15,1.25936073750e+02
268,2.42500000000e+03,-1.74387513531e-15,1.25126883334e+02
269,2.42900930000e+03,-1.75360996397e-15,1.24774414224e+02
270,2.43400000000e+03,-1.76569365434e-15,1.24343282187e+02
271,2.44300000000e+03,-1.78737015636e-15,1.23585027367e+02
272,2.45200000000e+03,-1.80904690606e-15,1.22850836857e+02
273,2.46100000000e+03,-1.83072424461e-15,1.22140705957e+02
274,2.47000000000e+03,-1.85240196428e-15,1.21454630124e+02
275,2.47900000000e+03,-1.87408007939e-15,1.20792604966e+02
276,2.48000930000e+03,-1.87648966359e-15,1.20719976049e+02
277,2.48800000000e+03,-1.89575391606e-15,1.20157104836e+02
278,2.49700000000e+03,-1.91743309480e-15,1.19545959532e+02
279,2.50600000000e+03,-1.93911239598e-15,1.18958852208e+02
280,2.51500000000e+03,-1.96079235752e-15,1.18395779107e+02
281,2.52400000000e+03,-1.98247277954e-15,1.17856736625e+02
282,2.53300000000e+03,-2.00415348952e-15,1.17341721313e+02
283,2.53500850000e+03,-2.00894787248e-15,1.17230263832e+02
284,2.54200000000e+03,-2.02582537700e-15,1.16896823603e+02
285,2.55100000000e+03,-2.04750709515e-15,1.16489180965e+02
286,2.56000000000e+03,-2.06918923571e-15,1.16105549345e+02
287,2.56900000000e+03,-2.09087151539e-15,1.15745926289e+02
288,2.57800000000e+03,-2.11255379452e-15,1.15410309496e+02
289,2.58600850000e+03,-2.13186494880e-15,1.15131956903e+02
290,2.58700000000e+03,-2.13423133910e-15,1.15099004339e+02
291,2.59600000000e+03,-2.15591392854e-15,1.14814185372e+02
292,2.60500000000e+03,-2.17759695043e-15,1.14553366481e+02
293,2.61400000000e+03,-2.19928026935e-15,1.14316545995e+02
294,2.62300000000e+03,-2.22096352502e-15,1.14103722399e+02
295,2.63200000000e+03,-2.24264671207e-15,1.13914894332e+02
296,2.63700850000e+03,-2.25478355929e-15,1.13820474028e+02
297,2.64100000000e+03,-2.26448783178e-15,1.13751291215e+02
298,2.65000000000e+03,-2.28617115781e-15,1.13613242357e+02
299,2.65900000000e+03,-2.30785481615e-15,1.13499185767e+02
300,2.66800000000e+03,-2.32953818064e-15,1.13409120717e+02
301,2.67700000000e+03,-2.35122181763e-15,1.13343046628e+02
302,2.68600000000e+03,-2.37289764547e-15,1.13300000000e+02
303,2.69500000000e+03,-1.55218102665e-15,1.13342207329e+02
304,2.70400000000e+03,-1.55219130074e-15,1.13407442108e+02
305,2.71300000000e+03,-1.55220157707e-15,1.13496667832e+02
306,2.72200000000e+03,-1.55221185328e-15,1.13609885072e+02
307,2.73100000000e+03,-1.55222212894e-15,1.13747094552e+02
308,2.73700850000e+03,-1.55222898614e-15,1.13852301910e+02
309,2.74000000000e+03,-1.55223239287e-15,1.13909232734e+02
310,2.74900000000e+03,-1.55224267015e-15,1.14097221322e+02
311,2.75800000000e+03,-1.55225294667e-15,1.14309205394e+02
312,2.76700000000e+03,-1.55226322233e-15,1.14545186307e+02
313,2.77600000000e+03,-1.55227349665e-15,1.14805165569e+02
314,2.78500000000e+03,-1.55228377415e-15,1.15089144846e+02
315,2.78800850000e+03,-1.55228720084e-15,1.15189681500e+02
316,2.79400000000e+03,-1.55229403768e-15,1.15398998395e+02
317,2.80300000000e+03,-1.55230431390e-15,1.15733775310e+02
318,2.81200000000e+03,-1.55231458878e-15,1.16092558409e+02
319,2.82100000000e+03,-1.55232486397e-15,1.16475349989e+02
320,2.83000000000e+03,-1.55233513917e-15,1.16882152499e+02
321,2.83700850000e+03,-1.55234313973e-15,1.17215765178e+02
322,2.83900000000e+03,-1.55234541704e-15,1.17326097910e+02
323,2.84800000000e+03,-1.55235569323e-15,1.17840272878e+02
324,2.85700000000e+03,-1.55236597163e-15,1.18378474898e+02
325,2.86600000000e+03,-1.55237624969e-15,1.18940707413e+02
326,2.87500000000e+03,-1.55238652665e-15,1.19526974023e+02
327,2.88400000000e+03,-1.55239680267e-15,1.20137278479e+02
328,2.88800850000e+03,-1.55240137328e-15,1.20417129202e+02
329,2.89300000000e+03,-1.55240706711e-15,1.20773200924e+02
330,2.90200000000e+03,-1.55241734514e-15,1.21434385166e+02
331,2.91100000000e+03,-1.55242762382e-15,1.22119619932e+02
332,2.92000000000e+03,-1.55243790230e-15,1.22828909607e+02
333,2.92900000000e+03,-1.55244818029e-15,1.23562258733e+02
334,2.93800000000e+03,-1.55245845709e-15,1.24319672001e+02
335,2.93900850000e+03,-1.55245961053e-15,1.24406150544e+02
336,2.94700000000e+03,-1.55246873411e-15,1.25103633321e+02
337,2.95600000000e+03,-1.55247901089e-15,1.25911982085e+02
338,2.96500000000e+03,-1.55248928802e-15,1.26744410604e+02
339,2.97400000000e+03,-1.55249956491e-15,1.27600924204e+02
340,2.98300000000e+03,-1.55250984107e-15,1.28481528369e+02
341,2.99200000000e+03,-1.55252012023e-15,1.29386228733e+02
342,2.99400930000e+03,-1.55252241794e-15,1.29591682718e+02
343,3.00100000000e+03,-1.55253039878e-15,1.30361125140e+02
344,3.01000000000e+03,-1.55254067752e-15,1.31373391362e+02
345,3.01900000000e+03,-1.55255095428e-15,1.32409787281e+02
346,3.02800000000e+03,-1.55256123284e-15,1.33470319531e+02
347,3.03700000000e+03,-1.55257151231e-15,1.34554994897e+02
348,3.04500930000e+03,-1.55258065839e-15,1.35540693851e+02
349,3.04600000000e+03,-1.55258179140e-15,1.35664127463e+02
350,3.05500000000e+03,-1.55259207029e-15,1.36799902224e+02
351,3.06400000000e+03,-1.55260234846e-15,1.37959842239e+02
352,3.07300000000e+03,-1.55261262703e-15,1.39143954931e+02
353,3.08200000000e+03,-1.55262290550e-15,1.40352247879e+02
354,3.09100000000e+03,-1.55263318297e-15,1.41584728816e+02
355,3.09600930000e+03,-1.55263890009e-15,1.42281489823e+02
356,3.10000000000e+03,-1.55264346429e-15,1.42842642580e+02
357,3.10900000000e+03,-1.55265374404e-15,1.44126315851e+02
358,3.11800000000e+03,-1.55266402473e-15,1.45434202192e+02
359,3.12700000000e+03,-1.55267430326e-15,1.46766309974e+02
360,3.13600000000e+03,-1.55268458313e-15,1.48122647721e+02
361,3.14500000000e+03,-1.55269486342e-15,1.49503224113e+02
362,3.15400000000e+03,-1.55270514386e-15,1.50967394695e+02
363,3.16300000000e+03,-1.55271542430e-15,1.52455844390e+02
364,3.17200000000e+03,-1.55272570356e-15,1.53968582724e+02
365,3.18100000000e+03,-1.55273598466e-15,1.55505619375e+02
366,3.19000000000e+03,-1.55274626634e-15,1.57066964181e+02
367,3.19900000000e+03,-1.55275654736e-15,1.58652627131e+02
368,3.20200930000e+03,-1.55275998854e-15,1.59188475652e+02
369,3.20800000000e+03,-1.55276682898e-15,1.60264476224e+02
370,3.21700000000e+03,-1.55277710963e-15,1.61901599070e+02
371,3.22600000000e+03,-1.55278739066e-15,1.63563072178e+02
372,3.23500000000e+03,-1.55279767033e-15,1.65248906179e+02
373,3.24400000000e+03,-1.55280795163e-15,1.66959111859e+02
374,3.25300000000e+03,-1.55281823300e-15,1.68693700162e+02
375,3.25900930000e+03,-1.55282509558e-15,1.69865729749e+02
376,3.26200000000e+03,-1.55282851608e-15,1.70453609225e+02
377,3.27100000000e+03,-1.55283879848e-15,1.72239788913e+02
378,3.28000000000e+03,-1.55284908134e-15,1.74050386303e+02
379,3.28900000000e+03,-1.55285936269e-15,1.75885412979e+02
380,3.29800000000e+03,-1.55286964533e-15,1.77744880683e+02
381,3.30700000000e+03,-1.55287992755e-15,1.79628801310e+02
382,3.31600000000e+03,-1.55289021197e-15,1.81537186913e+02
383,3.32500000000e+03,-1.55290049528e-15,1.83529399320e+02
384,3.33400000000e+03,-1.55291077992e-15,1.85546131884e+02
385,3.34300000000e+03,-1.55292106377e-15,1.87587397507e+02
386,3.35200000000e+03,-1.55293134701e-15,1.89653209246e+02
387,3.36100000000e+03,-1.55294163198e-15,1.91743580314e+02
388,3.37000000000e+03,-1.55295191417e-15,1.93858524086e+02
389,3.37300930000e+03,-1.55295535535e-15,1.94571403717e+02
390,3.37900000000e+03,-1.55296219937e-15,1.95999911829e+02
391,3.38800000000e+03,-1.55297248371e-15,1.98166835140e+02
392,3.39700000000e+03,-1.55298276815e-15,2.00358373790e+02
393,3.40600000000e+03,-1.55299305236e-15,2.02574541795e+02
394,3.41500000000e+03,-1.55300333608e-15,2.04815353330e+02
395,3.42400000000e+03,-1.55301361919e-15,2.07080822725e+02
396,3.43000930000e+03,-1.55302048520e-15,2.08607475757e+02
397,3.43300000000e+03,-1.55302390501e-15,2.09371891520e+02
398,3.44200000000e+03,-1.55303418971e-15,2.11689513209e+02
399,3.45100000000e+03,-1.55304447554e-15,2.14031838380e+02
400,3.46000000000e+03,-1.55305476197e-15,2.16398882010e+02
401,3.46900000000e+03,-1.55306504637e-15,2.18790659236e+02
402,3.47800000000e+03,-1.55307533041e-15,2.21207185353e+02
403,3.48700000000e+03,-1.55308561552e-15,2.23648475809e+02
404,3.49600000000e+03,-1.55309590297e-15,2.26173898913e+02
405,3.50500000000e+03,-1.55310619008e-15,2.28724156098e+02
406,3.51400000000e+03,-1.55311647591e-15,2.31299263667e+02
407,3.52300000000e+03,-1.55312676166e-15,2.33899238079e+02
408,3.53200000000e+03,-1.55313704642e-15,2.36524095955e+02
409,3.54100000000e+03,-1.55314733122e-15,2.39173854071e+02
410,3.54400930000e+03,-1.55315077248e-15,2.40065633880e+02
411,3.55000000000e+03,-1.55315761915e-15,2.41850387070e+02
412,3.55900000000e+03,-1.55316790455e-15,2.44552790416e+02
413,3.56800000000e+03,-1.55317819133e-15,2.47280147226e+02
414,3.57700000000e+03,-1.55318847853e-15,2.50032474930e+02
415,3.58600000000e+03,-1.55319876673e-15,2.52809791114e+02
416,3.59500000000e+03,-1.55320905455e-15,2.55612113525e+02
417,3.60100930000e+03,-1.55321592241e-15,2.57497415986e+02
418,3.60400000000e+03,-1.55321934244e-15,2.58440387143e+02
419,3.61300000000e+03,-1.55322963036e-15,2.61295569109e+02
420,3.62200000000e+03,-1.55323991840e-15,2.64175813535e+02
421,3.63100000000e+03,-1.55325020695e-15,2.67081138823e+02
422,3.64000000000e+03,-1.55326049438e-15,2.70011563531e+02
423,3.64900000000e+03,-1.55327078094e-15,2.72967106378e+02
424,3.65800000000e+03,-1.55328106919e-15,2.75947786240e+02
425,3.66700000000e+03,-1.55329135828e-15,2.79012978237e+02
426,3.67600000000e+03,-1.55330164665e-15,2.82103391351e+02
427,3.68500000000e+03,-1.55331193429e-15,2.85219045314e+02
428,3.69400000000e+03,-1.55332222109e-15,2.88359960017e+02
429,3.70300000000e+03,-1.55333251106e-15,2.91526155511e+02
430,3.71200000000e+03,-1.55334279978e-15,2.94717652010e+02
431,3.71500930000e+03,-1.55334624190e-15,2.95790664878e+02
432,3.72100000000e+03,-1.55335308887e-15,2.97936327634e+02
433,3.73000000000e+03,-1.55336337849e-15,3.01181281599e+02
434,3.73900000000e+03,-1.55337366859e-15,3.04451600455e+02
435,3.74800000000e+03,-1.55338395868e-15,3.07747305072e+02
436,3.75700000000e+03,-1.55339424809e-15,3.11068416483e+02
437,3.76600000000e+03,-1.55340453621e-15,3.14414955878e+02
438,3.77200930000e+03,-1.55341140564e-15,3.16663864599e+02
439,3.77500000000e+03,-1.55341482308e-15,3.17787902179e+02
440,3.78400000000e+03,-1.55342511137e-15,3.21188155289e+02
441,3.79300000000e+03,-1.55343540094e-15,3.24613903305e+02
442,3.80200000000e+03,-1.55344569085e-15,3.28065168081e+02
443,3.81100000000e+03,-1.55345598021e-15,3.31541971630e+02
444,3.81870000000e+03,-8.57310201251e-16,3.34537000000e+02
445,3.82300000000e+03,-5.10271578848e-16,3.36986949351e+02
446,3.82800000000e+03,-1.06789864522e-16,3.39843772104e+02
447,3.82932100000e+03,0.00000000000e+00,3.40600000000e+02
448,3.83000000000e+03,2.80113564719e-20,3.40598391738e+02
449,3.84500000000e+03,4.63168803304e-22,3.40598263129e+02
450,3.84573600000e+03,0.00000000000e+00,3.40600000000e+02
451,3.84600000000e+03,-2.40342480453e-22,3.40485141165e+02
452,3.85200000000e+03,-2.76430828962e-20,3.37880319975e+02
453,3.85800000000e+03,-5.50326951895e-20,3.35286283293e+02
454,3.86150000000e+03,-5.82903258503e-20,3.33801802796e+02
455,3.86450000000e+03,-6.00115253178e-20,3.32532660171e+02
456,3.87050000000e+03,-8.03503917689e-20,3.30003247077e+02
457,3.87650000000e+03,-1.00601709844e-19,3.27486084231e+02
458,3.87950000000e+03,-1.02266627776e-19,3.26231908129e+02
459,3.88250000000e+03,-1.03919248423e-19,3.24980775163e+02
460,3.88850000000e+03,-1.24023757322e-19,3.22487365466e+02
461,3.89450000000e+03,-1.44036614433e-19,3.20006183229e+02
462,3.89750000000e+03,-1.45622060833e-19,3.18770940138e+02
463,3.90050000000e+03,-1.47198732941e-19,3.17538734226e+02
464,3.90650000000e+03,-1.66997720218e-19,3.15083162158e+02
465,3.91250000000e+03,-1.86682072261e-19,3.12639793900e+02
466,3.91550000000e+03,-1.88186030648e-19,3.11422496447e+02
467,3.91850000000e+03,-1.89681367876e-19,3.10208230599e+02
468,3.92450000000e+03,-2.09095549022e-19,3.07788523280e+02
469,3.93050000000e+03,-2.28363812442e-19,3.05380997642e+02
470,3.93350000000e+03,-2.29424683149e-19,3.04181612586e+02
471,3.93650000000e+03,-2.30487037975e-19,3.02985253642e+02
472,3.94250000000e+03,-2.49445537383e-19,3.00601345009e+02
473,3.94850000000e+03,-2.68221577342e-19,2.98229596250e+02
474,3.95150000000e+03,-2.69043258597e-19,2.97048090832e+02
475,3.95450000000e+03,-2.69746541504e-19,2.95869606115e+02
476,3.96050000000e+03,-2.88132105057e-19,2.93523334553e+02
477,3.96650000000e+03,-3.06306385673e-19,2.91189200244e+02
478,3.96950000000e+03,-3.07130712248e-19,2.90026492905e+02
479,3.97250000000e+03,-3.07973504538e-19,2.88866835171e+02
480,3.97850000000e+03,-3.25422882379e-19,2.86556229650e+02
481,3.98450000000e+03,-3.41075255385e-19,2.84257740236e+02
482,3.98750000000e+03,-3.41861848308e-19,2.83112882422e+02
483,3.99050000000e+03,-3.42641273479e-19,2.81971034667e+02
484,3.99650000000e+03,-3.57880751318e-19,2.79696032048e+02
485,4.00250000000e+03,-3.72874605134e-19,2.77433124707e+02
486,4.00550000000e+03,-3.73593316212e-19,2.76306050841e+02
487,4.00850000000e+03,-3.74298745562e-19,2.75181981867e+02
488,4.01450000000e+03,-3.87269870151e-19,2.72942519986e+02
489,4.02050000000e+03,-3.99214711155e-19,2.70755591475e+02
490,4.02350000000e+03,-3.99776409996e-19,2.69666492256e+02
491,4.02650000000e+03,-4.00318627035e-19,2.68580387134e+02
492,4.03250000000e+03,-4.02656847390e-19,2.66416817732e+02
493,4.03850000000e+03,-4.04872639918e-19,2.64265280267e+02
494,4.04150000000e+03,-4.05343333776e-19,2.63193869861e+02
495,4.04450000000e+03,-4.05797091872e-19,2.62125448636e+02
496,4.05050000000e+03,-4.07818615471e-19,2.59997230952e+02
497,4.05650000000e+03,-4.09708405064e-19,2.57881025704e+02
498,4.05950000000e+03,-4.10088399615e-19,2.56827274813e+02
499,4.06250000000e+03,-4.10452940359e-19,2.55776508266e+02
500,4.06850000000e+03,-4.12109354916e-19,2.53683584110e+02
501,4.07450000000e+03,-4.13674858482e-19,2.51602653204e+02
502,4.07750000000e+03,-4.13953667817e-19,2.50567484941e+02
503,4.08050000000e+03,-4.14213481523e-19,2.49535296009e+02
504,4.08650000000e+03,-4.15492525606e-19,2.47479510672e+02
505,4.09250000000e+03,-4.16669211318e-19,2.45435698708e+02
506,4.09550000000e+03,-4.16836889898e-19,2.44418131273e+02
507,4.09850000000e+03,-4.16990074543e-19,2.43403538497e+02
508,4.10450000000e+03,-4.17890093963e-19,2.41382930156e+02
509,4.11050000000e+03,-4.18650212678e-19,2.39374276659e+02
510,4.11350000000e+03,-4.18710444373e-19,2.38374282208e+02
511,4.11650000000e+03,-4.18757197548e-19,2.37377257822e+02
512,4.12250000000e+03,-4.19240366341e-19,2.35391771204e+02
513,4.12850000000e+03,-4.19590943251e-19,2.33418221216e+02
514,4.13150000000e+03,-4.19534405354e-19,2.32435772380e+02
515,4.13450000000e+03,-4.19455748072e-19,2.31456289092e+02
516,4.14050000000e+03,-4.19497056677e-19,2.29507773449e+02
517,4.14650000000e+03,-4.19367775735e-19,2.27571175577e+02
518,4.14950000000e+03,-4.19176481773e-19,2.26607196440e+02
519,4.15250000000e+03,-4.18967918797e-19,2.25646178177e+02
520,4.15850000000e+03,-4.18543597224e-19,2.23732673695e+02
521,4.16450000000e+03,-4.17905940880e-19,2.21831069424e+02
522,4.16750000000e+03,-4.17585224855e-19,2.20884581165e+02
523,4.17050000000e+03,-4.17239814850e-19,2.19941049425e+02
524,4.17650000000e+03,-4.16383618470e-19,2.18062503741e+02
525,4.18250000000e+03,-4.15417940418e-19,2.16195841025e+02
526,4.18550000000e+03,-4.14956970966e-19,2.15266817720e+02
527,4.18850000000e+03,-4.14471754554e-19,2.14340746662e+02
528,4.19450000000e+03,-4.13271916680e-19,2.12497108362e+02
529,4.20050000000e+03,-4.11505839652e-19,2.10705796813e+02
530,4.20350000000e+03,-4.10708871009e-19,2.09814436846e+02
531,4.20650000000e+03,-4.09888472005e-19,2.08926020155e+02
532,4.21250000000e+03,-4.07875602985e-19,2.07157661327e+02
533,4.21850000000e+03,-4.05728364598e-19,2.05401133039e+02
534,4.22150000000e+03,-4.04769579022e-19,2.04527159187e+02
535,4.22450000000e+03,-4.03765106760e-19,2.03656124588e+02
536,4.23050000000e+03,-4.01340269159e-19,2.01922516852e+02
537,4.23650000000e+03,-3.98784682661e-19,2.00200723728e+02
538,4.23950000000e+03,-3.97639046196e-19,1.99344112038e+02
539,4.24250000000e+03,-3.96463810221e-19,1.98490435653e+02
540,4.24850000000e+03,-3.93902532310e-19,1.96791531542e+02
541,4.25450000000e+03,-3.91204326709e-19,1.95104426434e+02
542,4.25750000000e+03,-3.89855953179e-19,1.94266105380e+02
543,4.26050000000e+03,-3.88477046186e-19,1.93430715552e+02
544,4.26650000000e+03,-3.85495484005e-19,1.91768371367e+02
545,4.27250000000e+03,-3.82383589046e-19,1.90117810057e+02
546,4.27550000000e+03,-3.80844296250e-19,1.89296803417e+02
547,4.27850000000e+03,-3.79265528652e-19,1.88478724218e+02
548,4.28450000000e+03,-3.76000161662e-19,1.86850989092e+02
549,4.29050000000e+03,-3.72614359489e-19,1.85235021878e+02
550,4.29350000000e+03,-3.70863940826e-19,1.84431307137e+02
551,4.29650000000e+03,-3.69071321828e-19,1.83630516129e+02
552,4.30250000000e+03,-3.65468373719e-19,1.82037345488e+02
553,4.30850000000e+03,-3.61861912442e-19,1.80455928111e+02
554,4.31150000000e+03,-3.59894851785e-19,1.79669483222e+02
555,4.31450000000e+03,-3.57875208093e-19,1.78885958439e+02
556,4.32050000000e+03,-3.54010135992e-19,1.77329212343e+02
557,4.32650000000e+03,-3.50001338619e-19,1.75784204397e+02
558,4.32950000000e+03,-3.47779240349e-19,1.75015958968e+02
559,4.33250000000e+03,-3.45522761017e-19,1.74250629900e+02
560,4.33850000000e+03,-3.41213797700e-19,1.72728359642e+02
561,4.34450000000e+03,-3.36763687739e-19,1.71217813531e+02
562,4.34750000000e+03,-3.34296584519e-19,1.70466794122e+02
563,4.35050000000e+03,-3.31789414501e-19,1.69718687606e+02
564,4.35650000000e+03,-3.26949285340e-19,1.68230851492e+02
565,4.36250000000e+03,-3.21847194833e-19,1.66754725837e+02
566,4.36550000000e+03,-3.19130086380e-19,1.66020911836e+02
567,4.36850000000e+03,-3.16369203547e-19,1.65290007339e+02
568,4.37450000000e+03,-3.10711742727e-19,1.63836628224e+02
569,4.38050000000e+03,-3.04204437227e-19,1.62435410319e+02
570,4.38350000000e+03,-3.00889772603e-19,1.61739007821e+02
571,4.38650000000e+03,-2.97513997782e-19,1.61045507713e+02
572,4.39250000000e+03,-2.90632384231e-19,1.59666916150e+02
573,4.39850000000e+03,-2.83560158265e-19,1.58299993695e+02
574,4.40150000000e+03,-2.79945026028e-19,1.57620734185e+02
575,4.40450000000e+03,-2.76286267464e-19,1.56944373923e+02
576,4.41050000000e+03,-2.68785157029e-19,1.55600052681e+02
577,4.41650000000e+03,-2.61093823701e-19,1.54267388137e+02
578,4.41950000000e+03,-2.57184131598e-19,1.53605252959e+02
579,4.42250000000e+03,-2.53201225674e-19,1.52946013968e+02
580,4.42850000000e+03,-2.45111190787e-19,1.51635926126e+02
581,4.43450000000e+03,-2.36794475585e-19,1.50337482885e+02
582,4.43750000000e+03,-2.32539384810e-19,1.49693405836e+02
583,4.44050000000e+03,-2.28237290375e-19,1.49052221823e+02
584,4.44650000000e+03,-2.19446119992e-19,1.47778234546e+02
585,4.45250000000e+03,-2.10429856014e-19,1.46515879435e+02
586,4.45550000000e+03,-2.05840491076e-19,1.45888889842e+02
587,4.45850000000e+03,-2.01205796782e-19,1.45264790381e+02
588,4.46450000000e+03,-1.91731318908e-19,1.44024963550e+02
589,4.47050000000e+03,-1.82018640520e-19,1.42796757428e+02
590,4.47350000000e+03,-1.77084089627e-19,1.42186838065e+02
591,4.47650000000e+03,-1.72090305218e-19,1.41579806008e+02
592,4.48250000000e+03,-1.61928447790e-19,1.40374105560e+02
593,4.48850000000e+03,-1.51528530315e-19,1.39180014674e+02
594,4.49150000000e+03,-1.46238615713e-19,1.38587148781e+02
595,4.49450000000e+03,-1.40887472503e-19,1.37997167447e+02
596,4.50050000000e+03,-1.29958290036e-19,1.36827464079e+02
597,4.50650000000e+03,-1.18765834716e-19,1.35669358840e+02
598,4.50950000000e+03,-1.13086708761e-19,1.35094481517e+02
599,4.51250000000e+03,-1.07333637486e-19,1.34522485937e+02
600,4.51850000000e+03,-9.56384732264e-20,1.33386841854e+02
601,4.52450000000e+03,-8.36995994464e-20,1.32262785393e+02
602,4.52750000000e+03,-7.76282148934e-20,1.31704928551e+02
603,4.53050000000e+03,-7.14924490016e-20,1.31149950863e+02
604,4.53650000000e+03,-5.90210809030e-20,1.30048334853e+02
605,4.54250000000e+03,-4.62735720131e-20,1.28958296266e+02
606,4.55000000000e+03,-1.45305112126e-20,1.27656395117e+02
607,4.55400000000e+03,-3.52565596877e-21,1.26968499574e+02
608,4.55527600000e+03,0.00000000000e+00,1.26750000000e+02
609,4.55600000000e+03,-3.06745795640e-22,1.26566392029e+02
610,4.56100000000e+03,-2.41123099465e-21,1.25302439804e+02
611,4.56600000000e+03,-4.52832929250e-21,1.24045576382e+02
612,4.56900000000e+03,-5.58694088847e-21,1.23313454395e+02
613,4.57500000000e+03,-7.72249970956e-21,1.21857641010e+02
614,4.58100000000e+03,-9.90436037252e-21,1.20413525786e+02
615,4.58400000000e+03,-1.10133216480e-20,1.19695680712e+02
616,4.58700000000e+03,-1.21258563871e-20,1.18980742063e+02
617,4.59300000000e+03,-1.43779430720e-20,1.17559285454e+02
618,4.59900000000e+03,-1.66673010533e-20,1.16149513894e+02
619,4.60200000000e+03,-1.78247606555e-20,1.15448835767e+02
620,4.60500000000e+03,-1.89886169362e-20,1.14751060827e+02
621,4.61100000000e+03,-2.13336353369e-20,1.13365825744e+02
622,4.61700000000e+03,-2.37063557824e-20,1.11992262210e+02
623,4.62000000000e+03,-2.49055625693e-20,1.11309683068e+02
624,4.62300000000e+03,-2.61151951975e-20,1.10630003778e+02
625,4.62900000000e+03,-2.85388818127e-20,1.09279046275e+02
626,4.63500000000e+03,-3.09774357917e-20,1.07939747851e+02
627,4.63800000000e+03,-3.22164536890e-20,1.07274296620e+02
628,4.64100000000e+03,-3.34514351128e-20,1.06611742162e+02
629,4.64700000000e+03,-3.59399005025e-20,1.05295025139e+02
630,4.65300000000e+03,-3.84345434279e-20,1.03989955038e+02
631,4.65600000000e+03,-3.96909453102e-20,1.03341613441e+02
632,4.65900000000e+03,-4.09527264620e-20,1.02696165616e+02
633,4.66200930000e+03,-4.22187952670e-20,1.02051656111e+02
634,4.66500000000e+03,-4.34791274522e-20,1.01414601938e+02
635,4.67100000000e+03,-4.60145920050e-20,1.00145627783e+02
636,4.67400000000e+03,-4.72883585986e-20,9.95153295068e+01
637,4.67700000000e+03,-4.85618765924e-20,9.88879219198e+01
638,4.68300000000e+03,-5.11200253459e-20,9.76414804943e+01
639,4.68900000000e+03,-5.36666983640e-20,9.64066619729e+01
640,4.69200000000e+03,-5.49389368154e-20,9.57934372271e+01
641,4.69500000000e+03,-5.62186880764e-20,9.51831003293e+01
642,4.70100000000e+03,-5.87712379809e-20,9.39707918129e+01
643,4.70700000000e+03,-6.13161783686e-20,9.27700949932e+01
644,4.71000000000e+03,-6.25845292853e-20,9.21739269278e+01
645,4.71300000000e+03,-6.38531918803e-20,9.15806439476e+01
646,4.71900000000e+03,-6.63890711999e-20,9.04024350296e+01
647,4.72500000000e+03,-6.88547264954e-20,8.92762923230e+01
648,4.72800000000e+03,-7.00832138343e-20,8.87173925950e+01
649,4.73100000000e+03,-7.13029881606e-20,8.81613721771e+01
650,4.73700000000e+03,-7.37332398169e-20,8.70576711724e+01
651,4.74300000000e+03,-7.61301355436e-20,8.59655482082e+01
652,4.74600000000e+03,-7.73198472107e-20,8.54236545525e+01
653,4.74900000000e+03,-7.85051367718e-20,8.48846376917e+01
654,4.75500000000e+03,-8.08496299927e-20,8.38149363073e+01
655,4.76100000000e+03,-8.31450139611e-20,8.27568030578e+01
656,4.76400000000e+03,-8.42904654018e-20,8.22319005765e+01
657,4.76700000000e+03,-8.54228579270e-20,8.17098724527e+01
658,4.77300000000e+03,-8.76558801934e-20,8.06741412811e+01
659,4.77600930000e+03,-8.87645529611e-20,8.01592122564e+01
660,4.77900000000e+03,-8.98527095728e-20,7.96509176927e+01
661,4.78200000000e+03,-9.09331083948e-20,7.91439438208e+01
662,4.78500000000e+03,-9.20006829347e-20,7.86398418162e+01
663,4.79100000000e+03,-9.40978936256e-20,7.76399554667e+01
664,4.79700000000e+03,-9.61507208590e-20,7.66516178589e+01
665,4.80000000000e+03,-9.71570757878e-20,7.61616059929e+01
666,4.80300000000e+03,-9.81560703383e-20,7.56744637155e+01
667,4.80900000000e+03,-1.00007246669e-19,7.47084290773e+01
668,4.81500000000e+03,-1.01801830982e-19,7.37539345554e+01
669,4.81800000000e+03,-1.02725869332e-19,7.32808712340e+01
670,4.82100000000e+03,-1.03632324212e-19,7.28106753005e+01
671,4.82700000000e+03,-1.05338289497e-19,7.18785277661e+01
672,4.83300000000e+03,-1.06998978510e-19,7.09579117342e+01
673,4.83600000000e+03,-1.07820024137e-19,7.05027359494e+01
674,4.83900000000e+03,-1.08624031621e-19,7.00504253122e+01
675,4.84500000000e+03,-1.10159387369e-19,6.91540428383e+01
676,4.85100000000e+03,-1.11578203144e-19,6.82691831052e+01
677,4.85400000000e+03,-1.12289678516e-19,6.78309296136e+01
678,4.85700000000e+03,-1.12987852993e-19,6.73955392278e+01
679,4.86300000000e+03,-1.14227931285e-19,6.65329923647e+01
680,4.86900000000e+03,-1.15257248531e-19,6.56819602651e+01
681,4.87200000000e+03,-1.15850860774e-19,6.52606170093e+01
682,4.87500000000e+03,-1.16426976689e-19,6.48421348949e+01
683,4.88100000000e+03,-1.17299023481e-19,6.40134000184e+01
684,4.88700000000e+03,-1.18086716203e-19,6.31961722365e+01
685,4.89000000000e+03,-1.18548277575e-19,6.27917276233e+01
686,4.89300000000e+03,-1.18818222363e-19,6.24103770178e+01
687,4.89900000000e+03,-1.18499116290e-19,6.16558963126e+01
688,4.90500000000e+03,-1.18067001827e-19,6.09129069295e+01
689,4.90800000000e+03,-1.18199260970e-19,6.05455740158e+01
690,4.91100000000e+03,-1.18300132939e-19,6.01810964803e+01
691,4.91700000000e+03,-1.17615104215e-19,5.94603584195e+01
692,4.92300000000e+03,-1.16820426235e-19,5.87511049987e+01
693,4.92600000000e+03,-1.16783569722e-19,5.84006367617e+01
694,4.92900000000e+03,-1.16709899048e-19,5.80530222631e+01
695,4.93500000000e+03,-1.15658360827e-19,5.73660071081e+01
696,4.94100000000e+03,-1.14467756927e-19,5.66904702198e+01
697,4.94400000000e+03,-1.14241223872e-19,5.63568570131e+01
698,4.94700000000e+03,-1.13986835553e-19,5.60260959819e+01
699,4.95300000000e+03,-1.10048974473e-19,5.53746889793e+01
700,4.95900000000e+03,-1.05925094783e-19,5.47347538441e+01
701,4.96200000000e+03,-1.05492034941e-19,5.44189381708e+01
702,4.96500000000e+03,-1.05028545760e-19,5.41059731060e+01
703,4.97100000000e+03,-1.00545754497e-19,5.34882513216e+01
704,4.97700000000e+03,-9.58718714326e-20,5.28819956640e+01
705,4.98000000000e+03,-9.52295331577e-20,5.25830166380e+01
706,4.98300000000e+03,-9.45445200628e-20,5.22868868168e+01
707,4.98900000000e+03,-8.95484311809e-20,5.17028333352e+01
708,4.99500000000e+03,-8.43224928600e-20,5.11302405478e+01
709,4.99800000000e+03,-8.34537655483e-20,5.08480899381e+01
710,5.00100000000e+03,-8.25475845996e-20,5.05687872063e+01
711,5.00400930000e+03,-8.16009966183e-20,5.02915120226e+01
712,5.00700000000e+03,-8.06159561173e-20,5.00193771986e+01
713,5.01300000000e+03,-7.23150688418e-20,4.94823355544e+01
714,5.01600000000e+03,-7.12005723541e-20,4.92179574073e+01
715,5.01900000000e+03,-7.00474393332e-20,4.89564258201e+01
716,5.02500000000e+03,-5.37354727728e-20,4.84415653030e+01
717,5.03100000000e+03,-3.62047758309e-20,4.79381552721e+01
718,5.03400000000e+03,-3.48417036004e-20,4.76905900675e+01
719,5.03700000000e+03,-3.34331720357e-20,4.74458702544e+01
720,5.04300000000e+03,-1.42964301029e-20,4.69646320544e+01
721,5.04700000000e+03,-1.13645436109e-20,4.66503221936e+01
722,5.05100000000e+03,-1.18754088743e-21,4.63654625704e+01
723,5.05218400000e+03,0.00000000000e+00,4.62820000000e+01
724,5.05300000000e+03,-7.48847749605e-24,4.58960201674e+01
725,5.05600000000e+03,-7.79033934547e-24,4.44786994973e+01
726,5.05739200000e+03,0.00000000000e+00,4.38220000000e+01
727,5.05800000000e+03,-8.86718299949e-23,4.33721454182e+01
728,5.08638600000e+03,0.00000000000e+00,2.25100000000e+01
729,1.54559500000e+03,0.00000000000e+00,3.26522000000e+02
730,3.82640500000e+03,0.00000000000e+00,3.26520000000e+02
1001,8.31091000000e+02,0.00000000000e+00,4.43100000000e+01
1002,8.80000000000e+02,0.00000000000e+00,6.75527014060e+01
1003,8.81886000000e+02,0.00000000000e+00,6.84610000000e+01
1004,8.83000000000e+02,0.00000000000e+00,6.88187487730e+01
1005,8.91000000000e+02,0.00000000000e+00,7.13965429931e+01
1006,9.01000000000e+02,0.00000000000e+00,7.46402309028e+01
1007,9.11000000000e+02,0.00000000000e+00,7.79077622648e+01
1008,9.21009300000e+02,0.00000000000e+00,8.12022259272e+01
1009,9.33009300000e+02,0.00000000000e+00,8.52532850629e+01
1010,9.44009300000e+02,0.00000000000e+00,8.89970385451e+01
1011,9.55009300000e+02,0.00000000000e+00,9.27697819032e+01
1012,9.66009300000e+02,0.00000000000e+00,9.65715385279e+01
1013,9.78009300000e+02,0.00000000000e+00,1.00752026597e+02
1014,9.90009300000e+02,0.00000000000e+00,1.05036946711e+02
1015,1.00100930000e+03,0.00000000000e+00,1.08995256250e+02
1016,1.01200930000e+03,0.00000000000e+00,1.12982732552e+02
1017,1.02300930000e+03,0.00000000000e+00,1.16999400337e+02
1018,1.03500930000e+03,0.00000000000e+00,1.21414541763e+02
1019,1.04700930000e+03,0.00000000000e+00,1.25947563094e+02
1020,1.05800930000e+03,0.00000000000e+00,1.30133503318e+02
1021,1.06900930000e+03,0.00000000000e+00,1.34348807436e+02
1022,1.08000930000e+03,0.00000000000e+00,1.38593501571e+02
1023,1.09200930000e+03,0.00000000000e+00,1.43257627106e+02
1024,1.10400930000e+03,0.00000000000e+00,1.48026643015e+02
1025,1.11500930000e+03,0.00000000000e+00,1.52429115468e+02
1026,1.12600930000e+03,0.00000000000e+00,1.56861148192e+02
1027,1.13700930000e+03,0.00000000000e+00,1.61322768659e+02
1028,1.14900930000e+03,0.00000000000e+00,1.66223768180e+02
1029,1.16100930000e+03,0.00000000000e+00,1.71229898216e+02
1030,1.17200930000e+03,0.00000000000e+00,1.75849939041e+02
1031,1.18300930000e+03,0.00000000000e+00,1.80499745985e+02
1032,1.19400930000e+03,0.00000000000e+00,1.85179347870e+02
1033,1.20600930000e+03,0.00000000000e+00,1.90318383196e+02
1034,1.21800930000e+03,0.00000000000e+00,1.95576032221e+02
1035,1.22900930000e+03,0.00000000000e+00,2.00426868432e+02
1036,1.24000930000e+03,0.00000000000e+00,2.05307698276e+02
1037,1.25100930000e+03,0.00000000000e+00,2.10218552000e+02
1038,1.26300930000e+03,0.00000000000e+00,2.15610124846e+02
1039,1.27500930000e+03,0.00000000000e+00,2.21107357154e+02
1040,1.28600930000e+03,0.00000000000e+00,2.26178045438e+02
1041,1.29700930000e+03,0.00000000000e+00,2.31278952643e+02
1042,1.30800930000e+03,0.00000000000e+00,2.36410110379e+02
1043,1.32000930000e+03,0.00000000000e+00,2.42042411112e+02
1044,1.33200930000e+03,0.00000000000e+00,2.47780637570e+02
1045,1.34300930000e+03,0.00000000000e+00,2.53072488757e+02
1046,1.35400930000e+03,0.00000000000e+00,2.58394791167e+02
1047,1.36500930000e+03,0.00000000000e+00,2.63747577802e+02
1048,1.37700930000e+03,0.00000000000e+00,2.69621777314e+02
1049,1.38900930000e+03,0.00000000000e+00,2.75615420600e+02
1050,1.40000930000e+03,0.00000000000e+00,2.81141670384e+02
1051,1.41100930000e+03,0.00000000000e+00,2.86698629337e+02
1052,1.42200930000e+03,0.00000000000e+00,2.92286331913e+02
1053,1.43400930000e+03,0.00000000000e+00,2.98417102581e+02
1054,1.44600930000e+03,0.00000000000e+00,3.04654399637e+02
1055,1.45700930000e+03,0.00000000000e+00,3.10404261733e+02
1056,1.46800930000e+03,0.00000000000e+00,3.16185087339e+02
1057,1.47900930000e+03,0.00000000000e+00,3.21996912294e+02
1058,1.49100930000e+03,0.00000000000e+00,3.28372474810e+02
1059,1.50100000000e+03,0.00000000000e+00,3.33766875807e+02
1060,1.51100000000e+03,0.00000000000e+00,3.39192057565e+02
1061,1.52100000000e+03,0.00000000000e+00,3.44643038461e+02
1062,1.53000000000e+03,0.00000000000e+00,3.49571009265e+02
1063,1.53135000000e+03,0.00000000000e+00,3.50312000000e+02
1064,1.53200000000e+03,0.00000000000e+00,3.50311704769e+02
1065,1.53500000000e+03,0.00000000000e+00,3.50311585652e+02
1066,1.53600000000e+03,0.00000000000e+00,3.50312000000e+02
1067,1.53700000000e+03,0.00000000000e+00,3.49918222578e+02
1068,1.54800000000e+03,0.00000000000e+00,3.45602746938e+02
1069,1.55800000000e+03,0.00000000000e+00,3.41705146870e+02
1070,1.56800000000e+03,0.00000000000e+00,3.37831868648e+02
1071,1.57800000000e+03,0.00000000000e+00,3.33982892434e+02
1072,1.58800000000e+03,0.00000000000e+00,3.30158198507e+02
1073,1.60000000000e+03,0.00000000000e+00,3.25600590843e+02
1074,1.61200000000e+03,0.00000000000e+00,3.21147668057e+02
1075,1.62300000000e+03,0.00000000000e+00,3.17096398436e+02
1076,1.63400000000e+03,0.00000000000e+00,3.13074349803e+02
1077,1.64500000000e+03,0.00000000000e+00,3.09081497227e+02
1078,1.65700000000e+03,0.00000000000e+00,3.04758926958e+02
1079,1.66900000000e+03,0.00000000000e+00,3.00540822812e+02
1080,1.68000000000e+03,0.00000000000e+00,2.96704614267e+02
1081,1.69100000000e+03,0.00000000000e+00,2.92897446971e+02
1082,1.70200000000e+03,0.00000000000e+00,2.89119297320e+02
1083,1.71400930000e+03,0.00000000000e+00,2.85027591256e+02
1084,1.72600930000e+03,0.00000000000e+00,2.81056544767e+02
1085,1.73700930000e+03,0.00000000000e+00,2.77446616443e+02
1086,1.74800930000e+03,0.00000000000e+00,2.73865549743e+02
1087,1.75900930000e+03,0.00000000000e+00,2.70313322469e+02
1088,1.77100930000e+03,0.00000000000e+00,2.66471030817e+02
1089,1.78300930000e+03,0.00000000000e+00,2.62732790873e+02
1090,1.79400930000e+03,0.00000000000e+00,2.59336099651e+02
1091,1.80500930000e+03,0.00000000000e+00,2.55968109860e+02
1092,1.81600930000e+03,0.00000000000e+00,2.52628800617e+02
1093,1.82800930000e+03,0.00000000000e+00,2.49018603532e+02
1094,1.84000930000e+03,0.00000000000e+00,2.45512273964e+02
1095,1.85100930000e+03,0.00000000000e+00,2.42328008307e+02
1096,1.86200930000e+03,0.00000000000e+00,2.39172293399e+02
1097,1.87300930000e+03,0.00000000000e+00,2.36045109678e+02
1098,1.88500930000e+03,0.00000000000e+00,2.32666153448e+02
1099,1.89700930000e+03,0.00000000000e+00,2.29404111745e+02
1100,1.90800930000e+03,0.00000000000e+00,2.26443619411e+02
1101,1.91900930000e+03,0.00000000000e+00,2.23511528873e+02
1102,1.93000930000e+03,0.00000000000e+00,2.20607821950e+02
1103,1.94200930000e+03,0.00000000000e+00,2.17472491916e+02
1104,1.95400930000e+03,0.00000000000e+00,2.14440686086e+02
1105,1.96500930000e+03,0.00000000000e+00,2.11691104865e+02
1106,1.97600930000e+03,0.00000000000e+00,2.08969794367e+02
1107,1.98700930000e+03,0.00000000000e+00,2.06276737718e+02
1108,1.99900930000e+03,0.00000000000e+00,2.03371061519e+02
1109,2.01100930000e+03,0.00000000000e+00,2.00568759995e+02
1110,2.02200930000e+03,0.00000000000e+00,1.98029429264e+02
1111,2.03300930000e+03,0.00000000000e+00,1.95518247729e+02
1112,2.04400930000e+03,0.00000000000e+00,1.93035199814e+02
1113,2.05600930000e+03,0.00000000000e+00,1.90358488463e+02
1114,2.06800930000e+03,0.00000000000e+00,1.87798234458e+02
1115,2.07900930000e+03,0.00000000000e+00,1.85480655606e+02
1116,2.09000930000e+03,0.00000000000e+00,1.83191107784e+02
1117,2.10100930000e+03,0.00000000000e+00,1.80929576795e+02
1118,2.11300930000e+03,0.00000000000e+00,1.78494388687e+02
1119,2.12500930000e+03,0.00000000000e+00,1.76162303297e+02
1120,2.13600930000e+03,0.00000000000e+00,1.74053771120e+02
1121,2.14700930000e+03,0.00000000000e+00,1.71973168109e+02
1122,2.15800930000e+03,0.00000000000e+00,1.69920481363e+02
1123,2.17000930000e+03,0.00000000000e+00,1.67713010162e+02
1124,2.18200930000e+03,0.00000000000e+00,1.65608526921e+02
1125,2.19300930000e+03,0.00000000000e+00,1.63708532163e+02
1126,2.20400930000e+03,0.00000000000e+00,1.61836374279e+02
1127,2.21500930000e+03,0.00000000000e+00,1.59992041656e+02
1128,2.22700930000e+03,0.00000000000e+00,1.58011763593e+02
1129,2.23600930000e+03,0.00000000000e+00,1.56610537127e+02
1130,2.24700930000e+03,0.00000000000e+00,1.54923165437e+02
1131,2.25800930000e+03,0.00000000000e+00,1.53263546200e+02
1132,2.26900930000e+03,0.00000000000e+00,1.51631669121e+02
1133,2.27800930000e+03,0.00000000000e+00,1.50317124552e+02
1134,2.28700930000e+03,0.00000000000e+00,1.49073491531e+02
1135,2.29800930000e+03,0.00000000000e+00,1.47578671268e+02
1136,2.30900930000e+03,0.00000000000e+00,1.46111535516e+02
1137,2.32000930000e+03,0.00000000000e+00,1.44672075177e+02
1138,2.32900930000e+03,0.00000000000e+00,1.43514913674e+02
1139,2.33800930000e+03,0.00000000000e+00,1.42428621397e+02
1140,2.34834263333e+03,0.00000000000e+00,1.41204208381e+02
1141,2.35867596667e+03,0.00000000000e+00,1.40004173610e+02
1142,2.36900930000e+03,0.00000000000e+00,1.38828510515e+02
1143,2.37800930000e+03,0.00000000000e+00,1.37824398326e+02
1144,2.38700930000e+03,0.00000000000e+00,1.36901036861e+02
1145,2.39800930000e+03,0.00000000000e+00,1.35797554899e+02
1146,2.40900930000e+03,0.00000000000e+00,1.34721644547e+02
1147,2.42000930000e+03,0.00000000000e+00,1.33673299132e+02
1148,2.42900930000e+03,0.00000000000e+00,1.32836060272e+02
1149,2.43800930000e+03,0.00000000000e+00,1.32069621496e+02
1150,2.44900930000e+03,0.00000000000e+00,1.31157893918e+02
1151,2.46000930000e+03,0.00000000000e+00,1.30273695051e+02
1152,2.47100930000e+03,0.00000000000e+00,1.29417019414e+02
1153,2.48000930000e+03,0.00000000000e+00,1.28736571087e+02
1154,2.49100930000e+03,0.00000000000e+00,1.27993914178e+02
1155,2.50200930000e+03,0.00000000000e+00,1.27278754980e+02
1156,2.51300930000e+03,0.00000000000e+00,1.26591089058e+02
1157,2.52400930000e+03,0.00000000000e+00,1.25930912147e+02
1158,2.53500850000e+03,0.00000000000e+00,1.25298265167e+02
1159,2.54400930000e+03,0.00000000000e+00,1.24863284375e+02
1160,2.55500930000e+03,0.00000000000e+00,1.24356561121e+02
1161,2.56600930000e+03,0.00000000000e+00,1.23877308261e+02
1162,2.57700930000e+03,0.00000000000e+00,1.23425522849e+02
1163,2.58600850000e+03,0.00000000000e+00,1.23076324608e+02
1164,2.59500930000e+03,0.00000000000e+00,1.22797825802e+02
1165,2.60600930000e+03,0.00000000000e+00,1.22482442824e+02
1166,2.61700930000e+03,0.00000000000e+00,1.22194513229e+02
1167,2.62800930000e+03,0.00000000000e+00,1.21934035248e+02
1168,2.63700850000e+03,0.00000000000e+00,1.21741342722e+02
1169,2.64600930000e+03,0.00000000000e+00,1.21619369488e+02
1170,2.65634263333e+03,0.00000000000e+00,1.21502000725e+02
1171,2.66667596667e+03,0.00000000000e+00,1.21408851046e+02
1172,2.67700930000e+03,0.00000000000e+00,1.21339919945e+02
1173,2.68600850000e+03,0.00000000000e+00,1.21300000000e+02
1174,2.69500930000e+03,0.00000000000e+00,1.21339979913e+02
1175,2.70600930000e+03,0.00000000000e+00,1.21414255451e+02
1176,2.71700930000e+03,0.00000000000e+00,1.21515975053e+02
1177,2.72800930000e+03,0.00000000000e+00,1.21645139346e+02
1178,2.73700850000e+03,0.00000000000e+00,1.21771226346e+02
1179,2.74600930000e+03,0.00000000000e+00,1.21968089445e+02
1180,2.75700930000e+03,0.00000000000e+00,1.22233624529e+02
1181,2.76800930000e+03,0.00000000000e+00,1.22526611541e+02
1182,2.77900930000e+03,0.00000000000e+00,1.22847052279e+02
1183,2.78800850000e+03,0.00000000000e+00,1.23129638201e+02
1184,2.79700930000e+03,0.00000000000e+00,1.23483036143e+02
1185,2.80734263333e+03,0.00000000000e+00,1.23911416167e+02
1186,2.81767596667e+03,0.00000000000e+00,1.24364035737e+02
1187,2.82800930000e+03,0.00000000000e+00,1.24840897306e+02
1188,2.83700850000e+03,0.00000000000e+00,1.25275852353e+02
1189,2.84600930000e+03,0.00000000000e+00,1.25791563468e+02
1190,2.85700930000e+03,0.00000000000e+00,1.26446807883e+02
1191,2.86800930000e+03,0.00000000000e+00,1.27129540562e+02
1192,2.87900930000e+03,0.00000000000e+00,1.27839765739e+02
1193,2.88800850000e+03,0.00000000000e+00,1.28441256815e+02
1194,2.89700930000e+03,0.00000000000e+00,1.29113634477e+02
1195,2.90800930000e+03,0.00000000000e+00,1.29960372219e+02
1196,2.91900930000e+03,0.00000000000e+00,1.30834631250e+02
1197,2.93000930000e+03,0.00000000000e+00,1.31736416994e+02
1198,2.93900850000e+03,0.00000000000e+00,1.32494651787e+02
1199,2.95000930000e+03,0.00000000000e+00,1.33510576093e+02
1200,2.96100930000e+03,0.00000000000e+00,1.34553984810e+02
1201,2.97200930000e+03,0.00000000000e+00,1.35624957287e+02
1202,2.98300930000e+03,0.00000000000e+00,1.36723500166e+02
1203,2.99400930000e+03,0.00000000000e+00,1.37849620262e+02
1204,3.00300930000e+03,0.00000000000e+00,1.38853793386e+02
1205,3.01400930000e+03,0.00000000000e+00,1.40106217043e+02
1206,3.02500930000e+03,0.00000000000e+00,1.41386259051e+02
1207,3.03600930000e+03,0.00000000000e+00,1.42693927347e+02
1208,3.04500930000e+03,0.00000000000e+00,1.43784391914e+02
1209,3.05400930000e+03,0.00000000000e+00,1.44945726758e+02
1210,3.06500930000e+03,0.00000000000e+00,1.46390289334e+02
1211,3.07600930000e+03,0.00000000000e+00,1.47862528987e+02
1212,3.08700930000e+03,0.00000000000e+00,1.49362454849e+02
1213,3.09600930000e+03,0.00000000000e+00,1.50610266461e+02
1214,3.10500930000e+03,0.00000000000e+00,1.51928990820e+02
1215,3.11534263333e+03,0.00000000000e+00,1.53465977187e+02
1216,3.12567596667e+03,0.00000000000e+00,1.55027446039e+02
1217,3.13600930000e+03,0.00000000000e+00,1.56613405924e+02
1218,3.14500930000e+03,0.00000000000e+00,1.58014687301e+02
1219,3.15700930000e+03,0.00000000000e+00,1.59995038608e+02
1220,3.16800930000e+03,0.00000000000e+00,1.61839438400e+02
1221,3.17900930000e+03,0.00000000000e+00,1.63711663481e+02
1222,3.19000930000e+03,0.00000000000e+00,1.65611725463e+02
1223,3.20200930000e+03,0.00000000000e+00,1.67716282074e+02
1224,3.21400930000e+03,0.00000000000e+00,1.69923826679e+02
1225,3.22500930000e+03,0.00000000000e+00,1.71976580743e+02
1226,3.23600930000e+03,0.00000000000e+00,1.74057251103e+02
1227,3.24700930000e+03,0.00000000000e+00,1.76165850662e+02
1228,3.25900930000e+03,0.00000000000e+00,1.78498009594e+02
1229,3.26100930000e+03,0.00000000000e+00,1.78901573032e+02
1230,3.27534263333e+03,0.00000000000e+00,1.81820860396e+02
1231,3.28967596667e+03,0.00000000000e+00,1.84787702809e+02
1232,3.30400930000e+03,0.00000000000e+00,1.87802131509e+02
1233,3.31600930000e+03,0.00000000000e+00,1.90362459247e+02
1234,3.32800930000e+03,0.00000000000e+00,1.93039244375e+02
1235,3.33900930000e+03,0.00000000000e+00,1.95522359956e+02
1236,3.35000930000e+03,0.00000000000e+00,1.98033609197e+02
1237,3.36100930000e+03,0.00000000000e+00,2.00573007670e+02
1238,3.37300930000e+03,0.00000000000e+00,2.03375383138e+02
1239,3.38500930000e+03,0.00000000000e+00,2.06281133329e+02
1240,3.39600930000e+03,0.00000000000e+00,2.08974257844e+02
1241,3.40700930000e+03,0.00000000000e+00,2.11695636249e+02
1242,3.41800930000e+03,0.00000000000e+00,2.14445285418e+02
1243,3.43000930000e+03,0.00000000000e+00,2.17477165419e+02
1244,3.44200930000e+03,0.00000000000e+00,2.20612569675e+02
1245,3.45300930000e+03,0.00000000000e+00,2.23516344679e+02
1246,3.46400930000e+03,0.00000000000e+00,2.26448503341e+02
1247,3.47500930000e+03,0.00000000000e+00,2.29409063843e+02
1248,3.48700930000e+03,0.00000000000e+00,2.32671179963e+02
1249,3.49900930000e+03,0.00000000000e+00,2.36050210663e+02
1250,3.51000930000e+03,0.00000000000e+00,2.39177462697e+02
1251,3.52100930000e+03,0.00000000000e+00,2.42333245963e+02
1252,3.53200930000e+03,0.00000000000e+00,2.45517580028e+02
1253,3.54400930000e+03,0.00000000000e+00,2.49023984276e+02
1254,3.55600930000e+03,0.00000000000e+00,2.52634256097e+02
1255,3.56700930000e+03,0.00000000000e+00,2.55973633901e+02
1256,3.57800930000e+03,0.00000000000e+00,2.59341692302e+02
1257,3.58900930000e+03,0.00000000000e+00,2.62738452183e+02
1258,3.60100930000e+03,0.00000000000e+00,2.66476767085e+02
1259,3.61300930000e+03,0.00000000000e+00,2.70319133760e+02
1260,3.62400930000e+03,0.00000000000e+00,2.73871429859e+02
1261,3.63500930000e+03,0.00000000000e+00,2.77452565433e+02
1262,3.64600930000e+03,0.00000000000e+00,2.81062562686e+02
1263,3.65800930000e+03,0.00000000000e+00,2.85033684433e+02
1264,3.67000930000e+03,0.00000000000e+00,2.89122283835e+02
1265,3.68100930000e+03,0.00000000000e+00,2.92900478066e+02
1266,3.69200930000e+03,0.00000000000e+00,2.96707689980e+02
1267,3.70300930000e+03,0.00000000000e+00,3.00543943178e+02
1268,3.71500930000e+03,0.00000000000e+00,3.04762096078e+02
1269,3.72700930000e+03,0.00000000000e+00,3.09084715144e+02
1270,3.73800930000e+03,0.00000000000e+00,3.13077612491e+02
1271,3.74900930000e+03,0.00000000000e+00,3.17099705933e+02
1272,3.76000930000e+03,0.00000000000e+00,3.21151020403e+02
1273,3.77200930000e+03,0.00000000000e+00,3.25603992158e+02
1274,3.78200000000e+03,0.00000000000e+00,3.29396072838e+02
1275,3.79200000000e+03,0.00000000000e+00,3.33215930970e+02
1276,3.80200000000e+03,0.00000000000e+00,3.37060067477e+02
1277,3.81200000000e+03,0.00000000000e+00,3.40928502052e+02
1278,3.82200000000e+03,0.00000000000e+00,3.44821254510e+02
1279,3.83500000000e+03,0.00000000000e+00,3.49918220740e+02
1280,3.83600000000e+03,0.00000000000e+00,3.50312000000e+02
1281,3.83700000000e+03,0.00000000000e+00,3.50311585652e+02
1282,3.84000000000e+03,0.00000000000e+00,3.50311704769e+02
1283,3.84065000000e+03,0.00000000000e+00,3.50312000000e+02
1284,3.84200000000e+03,0.00000000000e+00,3.49742438685e+02
1285,3.84450000000e+03,0.00000000000e+00,3.48688879530e+02
1286,3.85450000000e+03,0.00000000000e+00,3.44490013368e+02
1287,3.86450000000e+03,0.00000000000e+00,3.40315723695e+02
1288,3.87450000000e+03,0.00000000000e+00,3.36165989127e+02
1289,3.88450000000e+03,0.00000000000e+00,3.32040788409e+02
1290,3.89450930000e+03,0.00000000000e+00,3.27936298174e+02
1291,3.90600930000e+03,0.00000000000e+00,3.23317681640e+02
1292,3.91800930000e+03,0.00000000000e+00,3.18532685433e+02
1293,3.93000930000e+03,0.00000000000e+00,3.13782816713e+02
1294,3.94200930000e+03,0.00000000000e+00,3.09068040445e+02
1295,3.95450930000e+03,0.00000000000e+00,3.04194093862e+02
1296,3.96600930000e+03,0.00000000000e+00,2.99810499712e+02
1297,3.97800930000e+03,0.00000000000e+00,2.95270507825e+02
1298,3.99000930000e+03,0.00000000000e+00,2.90765403739e+02
1299,4.00200930000e+03,0.00000000000e+00,2.86295154220e+02
1300,4.01450930000e+03,0.00000000000e+00,2.81675671991e+02
1301,4.02600930000e+03,0.00000000000e+00,2.77538629990e+02
1302,4.03800930000e+03,0.00000000000e+00,2.73255673536e+02
1303,4.05000930000e+03,0.00000000000e+00,2.69007365350e+02
1304,4.06200930000e+03,0.00000000000e+00,2.64793674093e+02
1305,4.07450930000e+03,0.00000000000e+00,2.60441189389e+02
1306,4.08600930000e+03,0.00000000000e+00,2.56536894587e+02
1307,4.09800930000e+03,0.00000000000e+00,2.52496592819e+02
1308,4.11000930000e+03,0.00000000000e+00,2.48490724618e+02
1309,4.12200930000e+03,0.00000000000e+00,2.44519260432e+02
1310,4.13450930000e+03,0.00000000000e+00,2.40418871111e+02
1311,4.14600930000e+03,0.00000000000e+00,2.36746304955e+02
1312,4.15800930000e+03,0.00000000000e+00,2.32947606967e+02
1313,4.17000930000e+03,0.00000000000e+00,2.29183140020e+02
1314,4.18200930000e+03,0.00000000000e+00,2.25452876337e+02
1315,4.19450930000e+03,0.00000000000e+00,2.21603525991e+02
1316,4.20600930000e+03,0.00000000000e+00,2.18174397108e+02
1317,4.21800930000e+03,0.00000000000e+00,2.14629522528e+02
1318,4.23000930000e+03,0.00000000000e+00,2.11118678526e+02
1319,4.24200930000e+03,0.00000000000e+00,2.07641839197e+02
1320,4.25450930000e+03,0.00000000000e+00,2.04056263390e+02
1321,4.26600930000e+03,0.00000000000e+00,2.00856953137e+02
1322,4.27800930000e+03,0.00000000000e+00,1.97551713810e+02
1323,4.29000930000e+03,0.00000000000e+00,1.94280327580e+02
1324,4.30200930000e+03,0.00000000000e+00,1.91042770306e+02
1325,4.31450930000e+03,0.00000000000e+00,1.87706261691e+02
1326,4.32600930000e+03,0.00000000000e+00,1.84735929819e+02
1327,4.33800930000e+03,0.00000000000e+00,1.81669460917e+02
1328,4.35000930000e+03,0.00000000000e+00,1.78636679833e+02
1329,4.36200930000e+03,0.00000000000e+00,1.75637564184e+02
1330,4.37450930000e+03,0.00000000000e+00,1.72549260274e+02
1331,4.38600930000e+03,0.00000000000e+00,1.69819794745e+02
1332,4.39800930000e+03,0.00000000000e+00,1.67004504982e+02
1333,4.41000930000e+03,0.00000000000e+00,1.64222741812e+02
1334,4.42200930000e+03,0.00000000000e+00,1.61474484706e+02
1335,4.43450930000e+03,0.00000000000e+00,1.58647324301e+02
1336,4.44600930000e+03,0.00000000000e+00,1.56145293555e+02
1337,4.45800930000e+03,0.00000000000e+00,1.53567188106e+02
1338,4.47000930000e+03,0.00000000000e+00,1.51022469079e+02
1339,4.48200930000e+03,0.00000000000e+00,1.48511117693e+02
1340,4.49450930000e+03,0.00000000000e+00,1.45930588773e+02
1341,4.50500000000e+03,0.00000000000e+00,1.43853796182e+02
1342,4.51500000000e+03,0.00000000000e+00,1.41897821406e+02
1343,4.52500000000e+03,0.00000000000e+00,1.39964945786e+02
1344,4.53500000000e+03,0.00000000000e+00,1.38055159419e+02
1345,4.54500000000e+03,0.00000000000e+00,1.36168452514e+02
1346,4.55400000000e+03,0.00000000000e+00,1.34490141245e+02
1347,4.55502600000e+03,0.00000000000e+00,1.34300000000e+02
1348,4.55600000000e+03,0.00000000000e+00,1.34065224617e+02
1349,4.56500000000e+03,0.00000000000e+00,1.31906308711e+02
1350,4.57500000000e+03,0.00000000000e+00,1.29529658827e+02
1351,4.58500000000e+03,0.00000000000e+00,1.27176308295e+02
1352,4.59500000000e+03,0.00000000000e+00,1.24846245054e+02
1353,4.60500930000e+03,0.00000000000e+00,1.22537322679e+02
1354,4.61700930000e+03,0.00000000000e+00,1.19869702550e+02
1355,4.62800930000e+03,0.00000000000e+00,1.17453758872e+02
1356,4.63900930000e+03,0.00000000000e+00,1.15065897362e+02
1357,4.65000930000e+03,0.00000000000e+00,1.12706103216e+02
1358,4.66200930000e+03,0.00000000000e+00,1.10163775850e+02
1359,4.67400930000e+03,0.00000000000e+00,1.07724609032e+02
1360,4.68500930000e+03,0.00000000000e+00,1.05517968301e+02
1361,4.69600930000e+03,0.00000000000e+00,1.03339303386e+02
1362,4.70700930000e+03,0.00000000000e+00,1.01188600775e+02
1363,4.71900930000e+03,0.00000000000e+00,9.88742549729e+01
1364,4.73100930000e+03,0.00000000000e+00,9.66761709630e+01
1365,4.74200930000e+03,0.00000000000e+00,9.46904145712e+01
1366,4.75300930000e+03,0.00000000000e+00,9.27325318770e+01
1367,4.76400930000e+03,0.00000000000e+00,9.08025107385e+01
1368,4.77600930000e+03,0.00000000000e+00,8.87287950624e+01
1369,4.78800930000e+03,0.00000000000e+00,8.67580051410e+01
1370,4.79900930000e+03,0.00000000000e+00,8.49805096744e+01
1371,4.81000930000e+03,0.00000000000e+00,8.32308012454e+01
1372,4.82100930000e+03,0.00000000000e+00,8.15088690016e+01
1373,4.83300930000e+03,0.00000000000e+00,7.96620635438e+01
1374,4.84500930000e+03,0.00000000000e+00,7.79180871777e+01
1375,4.85600930000e+03,0.00000000000e+00,7.63484221650e+01
1376,4.86700930000e+03,0.00000000000e+00,7.48064671089e+01
1377,4.87800930000e+03,0.00000000000e+00,7.32922124458e+01
1378,4.89000930000e+03,0.00000000000e+00,7.16718794210e+01
1379,4.90200930000e+03,0.00000000000e+00,7.01675125777e+01
1380,4.91300930000e+03,0.00000000000e+00,6.88174137835e+01
1381,4.92400930000e+03,0.00000000000e+00,6.74949538022e+01
1382,4.93500930000e+03,0.00000000000e+00,6.62001244316e+01
1383,4.94700930000e+03,0.00000000000e+00,6.48190864660e+01
1384,4.95900930000e+03,0.00000000000e+00,6.35407145167e+01
1385,4.97000930000e+03,0.00000000000e+00,6.23977163776e+01
1386,4.98100930000e+03,0.00000000000e+00,6.12822997094e+01
1387,4.99200930000e+03,0.00000000000e+00,6.01944575946e+01
1388,5.00400930000e+03,0.00000000000e+00,5.90391614824e+01
1389,5.01500000000e+03,0.00000000000e+00,5.80737473016e+01
1390,5.02700000000e+03,0.00000000000e+00,5.70510734631e+01
1391,5.03900000000e+03,0.00000000000e+00,5.60611670432e+01
1392,5.05000000000e+03,0.00000000000e+00,5.51825318476e+01
1393,5.05096200000e+03,0.00000000000e+00,5.51070000000e+01
1394,5.05200000000e+03,0.00000000000e+00,5.48188259624e+01
1395,5.10170000000e+03,0.00000000000e+00,4.13170000000e+01
*ELEMENT,TYPE=SPRINGA,ELSET=E1
1,1,2
*SPRING,ELSET=E1,NONLINEAR
0.00000000000e+00,-1.92034211408e+00
0.00000000000e+00,-2.01521105717e-01
1.56863000000e+07,0.00000000000e+00
1.49478449897e+08,1.71882100836e+00
*ELEMENT,TYPE=SPRINGA,ELSET=E2
2,2,3
*SPRING,ELSET=E2,NONLINEAR
0.00000000000e+00,-8.46004668613e-02
0.00000000000e+00,-8.89723586925e-03
1.57243000000e+07,0.00000000000e+00
1.49516449897e+08,7.57032309920e-02
*ELEMENT,TYPE=SPRINGA,ELSET=E3
3,3,4
*SPRING,ELSET=E3,NONLINEAR
0.00000000000e+00,-6.91880049340e-02
0.00000000000e+00,-5.78411950076e-03
1.22054000000e+07,0.00000000000e+00
1.45997549897e+08,6.34038854333e-02
*ELEMENT,TYPE=SPRINGA,ELSET=E4
4,4,5
*SPRING,ELSET=E4,NONLINEAR
0.00000000000e+00,-2.00034581034e-01
0.00000000000e+00,-1.67277942236e-02
1.22093000000e+07,0.00000000000e+00
1.46001449897e+08,1.83306786811e-01
*ELEMENT,TYPE=SPRINGA,ELSET=E5
5,5,6
*SPRING,ELSET=E5,NONLINEAR
0.00000000000e+00,-5.92299896393e-02
0.00000000000e+00,-4.95445444202e-03
1.22130000000e+07,0.00000000000e+00
1.46005149897e+08,5.42755351973e-02
*ELEMENT,TYPE=SPRINGA,ELSET=E6
6,6,7
*SPRING,ELSET=E6,NONLINEAR
0.00000000000e+00,-6.27716513442e-02
0.00000000000e+00,-4.55229819839e-03
1.04615000000e+07,0.00000000000e+00
1.44253649897e+08,5.82193531458e-02
*ELEMENT,TYPE=SPRINGA,ELSET=E7
7,7,8
*SPRING,ELSET=E7,NONLINEAR
0.00000000000e+00,-2.82323224532e-01
0.00000000000e+00,-2.04792406286e-02
1.04641000000e+07,0.00000000000e+00
1.44256249897e+08,2.61843983903e-01
*ELEMENT,TYPE=SPRINGA,ELSET=E8
8,8,9
*SPRING,ELSET=E8,NONLINEAR
0.00000000000e+00,-2.82994699207e-01
0.00000000000e+00,-2.05701526525e-02
1.04873000000e+07,0.00000000000e+00
1.44279449897e+08,2.62424546555e-01
*ELEMENT,TYPE=SPRINGA,ELSET=E9
9,9,10
*SPRING,ELSET=E9,NONLINEAR
0.00000000000e+00,-3.39788916390e-01
0.00000000000e+00,-2.47108250726e-02
1.04930000000e+07,0.00000000000e+00
1.44285149897e+08,3.15078091318e-01
*ELEMENT,TYPE=SPRINGA,ELSET=E10
10,10,11
*SPRING,ELSET=E10,NONLINEAR
0.00000000000e+00,-1.69970333968e-01
0.00000000000e+00,-1.23657367084e-02
1.04974000000e+07,0.00000000000e+00
1.44289549897e+08,1.57604597260e-01
*ELEMENT,TYPE=SPRINGA,ELSET=E11
11,11,12
*SPRING,ELSET=E11,NONLINEAR
0.00000000000e+00,-1.70023104675e-01
0.00000000000e+00,-1.23728536893e-02
1.05004000000e+07,0.00000000000e+00
1.44292549897e+08,1.57650250986e-01
*ELEMENT,TYPE=SPRINGA,ELSET=E12
12,12,13
*SPRING,ELSET=E12,NONLINEAR
0.00000000000e+00,-3.40200754328e-01
0.00000000000e+00,-2.47665725895e-02
1.05048000000e+07,0.00000000000e+00
1.44296949897e+08,3.15434181739e-01
*ELEMENT,TYPE=SPRINGA,ELSET=E13
13,13,14
*SPRING,ELSET=E13,NONLINEAR
0.00000000000e+00,-3.40415199224e-01
0.00000000000e+00,-2.47957453569e-02
1.05110000000e+07,0.00000000000e+00
1.44303149897e+08,3.15619453867e-01
*ELEMENT,TYPE=SPRINGA,ELSET=E14
14,14,15
*SPRING,ELSET=E14,NONLINEAR
0.00000000000e+00,-1.70284898075e-01
0.00000000000e+00,-1.24084263515e-02
1.05155000000e+07,0.00000000000e+00
1.44307649897e+08,1.57876471723e-01
*ELEMENT,TYPE=SPRINGA,ELSET=E15
15,15,16
*SPRING,ELSET=E15,NONLINEAR
0.00000000000e+00,-1.70338681637e-01
0.00000000000e+00,-1.24157379679e-02
1.05186000000e+07,0.00000000000e+00
1.44310749897e+08,1.57922943669e-01
*ELEMENT,TYPE=SPRINGA,ELSET=E16
16,16,17
*SPRING,ELSET=E16,NONLINEAR
0.00000000000e+00,-3.40869464470e-01
0.00000000000e+00,-2.48575218216e-02
1.05241000000e+07,0.00000000000e+00
1.44316249897e+08,3.16011942648e-01
*ELEMENT,TYPE=SPRINGA,ELSET=E17
17,17,18
*SPRING,ELSET=E17,NONLINEAR
0.00000000000e+00,-3.41087941504e-01
0.00000000000e+00,-2.48872574783e-02
1.05304000000e+07,0.00000000000e+00
1.44322549897e+08,3.16200684025e-01
*ELEMENT,TYPE=SPRINGA,ELSET=E18
18,18,19
*SPRING,ELSET=E18,NONLINEAR
0.00000000000e+00,-1.70622647847e-01
0.00000000000e+00,-1.24543010758e-02
1.05349000000e+07,0.00000000000e+00
1.44327049897e+08,1.58168346771e-01
*ELEMENT,TYPE=SPRINGA,ELSET=E19
19,19,20
*SPRING,ELSET=E19,NONLINEAR
0.00000000000e+00,-1.70677494623e-01
0.00000000000e+00,-1.24618124570e-02
1.05381000000e+07,0.00000000000e+00
1.44330249897e+08,1.58215682166e-01
*ELEMENT,TYPE=SPRINGA,ELSET=E20
20,20,21
*SPRING,ELSET=E20,NONLINEAR
0.00000000000e+00,-3.41515105031e-01
0.00000000000e+00,-2.49451857496e-02
1.05426000000e+07,0.00000000000e+00
1.44334749897e+08,3.16569919281e-01
*ELEMENT,TYPE=SPRINGA,ELSET=E21
21,21,22
*SPRING,ELSET=E21,NONLINEAR
0.00000000000e+00,-3.41737424752e-01
0.00000000000e+00,-2.49754702403e-02
1.05490000000e+07,0.00000000000e+00
1.44341149897e+08,3.16761954512e-01
*ELEMENT,TYPE=SPRINGA,ELSET=E22
22,22,23
*SPRING,ELSET=E22,NONLINEAR
0.00000000000e+00,-1.70948936669e-01
0.00000000000e+00,-1.24987576312e-02
1.05537000000e+07,0.00000000000e+00
1.44345849897e+08,1.58450179038e-01
*ELEMENT,TYPE=SPRINGA,ELSET=E23
23,23,24
*SPRING,ELSET=E23,NONLINEAR
0.00000000000e+00,-1.71004681334e-01
0.00000000000e+00,-1.25063470917e-02
1.05569000000e+07,0.00000000000e+00
1.44349049897e+08,1.58498334242e-01
*ELEMENT,TYPE=SPRINGA,ELSET=E24
24,24,25
*SPRING,ELSET=E24,NONLINEAR
0.00000000000e+00,-3.42172554138e-01
0.00000000000e+00,-2.50349551042e-02
1.05616000000e+07,0.00000000000e+00
1.44353749897e+08,3.17137599034e-01
*ELEMENT,TYPE=SPRINGA,ELSET=E25
25,25,26
*SPRING,ELSET=E25,NONLINEAR
0.00000000000e+00,-3.42398722874e-01
0.00000000000e+00,-2.50657916274e-02
1.05681000000e+07,0.00000000000e+00
1.44360249897e+08,3.17332931246e-01
*ELEMENT,TYPE=SPRINGA,ELSET=E26
26,26,27
*SPRING,ELSET=E26,NONLINEAR
0.00000000000e+00,-1.71280899238e-01
0.00000000000e+00,-1.25440329717e-02
1.05728000000e+07,0.00000000000e+00
1.44364949897e+08,1.58736866266e-01
*ELEMENT,TYPE=SPRINGA,ELSET=E27
27,27,28
*SPRING,ELSET=E27,NONLINEAR
0.00000000000e+00,-1.71337543135e-01
0.00000000000e+00,-1.25517010330e-02
1.05760000000e+07,0.00000000000e+00
1.44368149897e+08,1.58785842102e-01
*ELEMENT,TYPE=SPRINGA,ELSET=E28
28,28,29
*SPRING,ELSET=E28,NONLINEAR
0.00000000000e+00,-1.71395044114e-01
0.00000000000e+00,-1.25595440892e-02
1.05793000000e+07,0.00000000000e+00
1.44371449897e+08,1.58835500025e-01
*ELEMENT,TYPE=SPRINGA,ELSET=E29
29,29,30
*SPRING,ELSET=E29,NONLINEAR
0.00000000000e+00,-1.71463471709e-01
0.00000000000e+00,-1.25689607301e-02
1.05833000000e+07,0.00000000000e+00
1.44375449897e+08,1.58894510979e-01
*ELEMENT,TYPE=SPRINGA,ELSET=E30
30,30,31
*SPRING,ELSET=E30,NONLINEAR
0.00000000000e+00,-3.43107890391e-01
0.00000000000e+00,-2.51626370985e-02
1.05885000000e+07,0.00000000000e+00
1.44380649897e+08,3.17945253293e-01
*ELEMENT,TYPE=SPRINGA,ELSET=E31
31,31,32
*SPRING,ELSET=E31,NONLINEAR
0.00000000000e+00,-1.71636870286e-01
0.00000000000e+00,-1.25925774022e-02
1.05932000000e+07,0.00000000000e+00
1.44385349897e+08,1.59044292884e-01
*ELEMENT,TYPE=SPRINGA,ELSET=E32
32,32,33
*SPRING,ELSET=E32,NONLINEAR
0.00000000000e+00,-1.71694701214e-01
0.00000000000e+00,-1.26005666797e-02
1.05966000000e+07,0.00000000000e+00
1.44388749897e+08,1.59094134534e-01
*ELEMENT,TYPE=SPRINGA,ELSET=E33
33,33,34
*SPRING,ELSET=E33,NONLINEAR
0.00000000000e+00,-3.43558187589e-01
0.00000000000e+00,-2.52241029638e-02
1.06014000000e+07,0.00000000000e+00
1.44393549897e+08,3.18334084625e-01
*ELEMENT,TYPE=SPRINGA,ELSET=E34
34,34,35
*SPRING,ELSET=E34,NONLINEAR
0.00000000000e+00,-3.43792268590e-01
0.00000000000e+00,-2.52560696192e-02
1.06081000000e+07,0.00000000000e+00
1.44400249897e+08,3.18536198971e-01
*ELEMENT,TYPE=SPRINGA,ELSET=E35
35,35,36
*SPRING,ELSET=E35,NONLINEAR
0.00000000000e+00,-1.71980616522e-01
0.00000000000e+00,-1.26396481320e-02
1.06130000000e+07,0.00000000000e+00
1.44405149897e+08,1.59340968390e-01
*ELEMENT,TYPE=SPRINGA,ELSET=E36
36,36,37
*SPRING,ELSET=E36,NONLINEAR
0.00000000000e+00,-1.72039349924e-01
0.00000000000e+00,-1.26477175751e-02
1.06164000000e+07,0.00000000000e+00
1.44408549897e+08,1.59391632349e-01
*ELEMENT,TYPE=SPRINGA,ELSET=E37
37,37,38
*SPRING,ELSET=E37,NONLINEAR
0.00000000000e+00,-3.44250336569e-01
0.00000000000e+00,-2.53188750937e-02
1.06213000000e+07,0.00000000000e+00
1.44413449897e+08,3.18931461475e-01
*ELEMENT,TYPE=SPRINGA,ELSET=E38
38,38,39
*SPRING,ELSET=E38,NONLINEAR
0.00000000000e+00,-3.44488285751e-01
0.00000000000e+00,-2.53514029536e-02
1.06281000000e+07,0.00000000000e+00
1.44420249897e+08,3.19136882798e-01
*ELEMENT,TYPE=SPRINGA,ELSET=E39
39,39,40
*SPRING,ELSET=E39,NONLINEAR
0.00000000000e+00,-1.72330066564e-01
0.00000000000e+00,-1.26875517411e-02
1.06331000000e+07,0.00000000000e+00
1.44425249897e+08,1.59642514823e-01
*ELEMENT,TYPE=SPRINGA,ELSET=E40
40,40,41
*SPRING,ELSET=E40,NONLINEAR
0.00000000000e+00,-1.72389703843e-01
0.00000000000e+00,-1.26957019001e-02
1.06365000000e+07,0.00000000000e+00
1.44428649897e+08,1.59694001943e-01
*ELEMENT,TYPE=SPRINGA,ELSET=E41
41,41,42
*SPRING,ELSET=E41,NONLINEAR
0.00000000000e+00,-3.44953900490e-01
0.00000000000e+00,-2.54153165463e-02
1.06415000000e+07,0.00000000000e+00
1.44433649897e+08,3.19538583944e-01
*ELEMENT,TYPE=SPRINGA,ELSET=E42
42,42,43
*SPRING,ELSET=E42,NONLINEAR
0.00000000000e+00,-3.46016628059e-01
0.00000000000e+00,-2.55612860165e-02
1.06720000000e+07,0.00000000000e+00
1.44464149897e+08,3.20455342042e-01
*ELEMENT,TYPE=SPRINGA,ELSET=E43
43,43,44
*SPRING,ELSET=E43,NONLINEAR
0.00000000000e+00,-1.73097316752e-01
0.00000000000e+00,-1.27929880749e-02
1.06772000000e+07,0.00000000000e+00
1.44469349897e+08,1.60304328677e-01
*ELEMENT,TYPE=SPRINGA,ELSET=E44
44,44,45
*SPRING,ELSET=E44,NONLINEAR
0.00000000000e+00,-1.73159013413e-01
0.00000000000e+00,-1.28014327666e-02
1.06807000000e+07,0.00000000000e+00
1.44472849897e+08,1.60357580646e-01
*ELEMENT,TYPE=SPRINGA,ELSET=E45
45,45,46
*SPRING,ELSET=E45,NONLINEAR
0.00000000000e+00,-3.46498615122e-01
0.00000000000e+00,-2.56277652832e-02
1.06859000000e+07,0.00000000000e+00
1.44478049897e+08,3.20870849838e-01
*ELEMENT,TYPE=SPRINGA,ELSET=E46
46,46,47
*SPRING,ELSET=E46,NONLINEAR
0.00000000000e+00,-3.46748961314e-01
0.00000000000e+00,-2.56622826266e-02
1.06931000000e+07,0.00000000000e+00
1.44485249897e+08,3.21086678687e-01
*ELEMENT,TYPE=SPRINGA,ELSET=E47
47,47,48
*SPRING,ELSET=E47,NONLINEAR
0.00000000000e+00,-1.73464814767e-01
0.00000000000e+00,-1.28436075128e-02
1.06983000000e+07,0.00000000000e+00
1.44490449897e+08,1.60621207255e-01
*ELEMENT,TYPE=SPRINGA,ELSET=E48
48,48,49
*SPRING,ELSET=E48,NONLINEAR
0.00000000000e+00,-1.73527540232e-01
0.00000000000e+00,-1.28522550523e-02
1.07019000000e+07,0.00000000000e+00
1.44494049897e+08,1.60675285180e-01
*ELEMENT,TYPE=SPRINGA,ELSET=E49
49,49,50
*SPRING,ELSET=E49,NONLINEAR
0.00000000000e+00,-3.47238299932e-01
0.00000000000e+00,-2.57296505266e-02
1.07071000000e+07,0.00000000000e+00
1.44499249897e+08,3.21508649405e-01
*ELEMENT,TYPE=SPRINGA,ELSET=E50
50,50,51
*SPRING,ELSET=E50,NONLINEAR
0.00000000000e+00,-3.47492542584e-01
0.00000000000e+00,-2.57647428502e-02
1.07144000000e+07,0.00000000000e+00
1.44506549897e+08,3.21727799734e-01
*ELEMENT,TYPE=SPRINGA,ELSET=E51
51,51,52
*SPRING,ELSET=E51,NONLINEAR
0.00000000000e+00,-1.73838059723e-01
0.00000000000e+00,-1.28950798854e-02
1.07197000000e+07,0.00000000000e+00
1.44511849897e+08,1.60942979837e-01
*ELEMENT,TYPE=SPRINGA,ELSET=E52
52,52,53
*SPRING,ELSET=E52,NONLINEAR
0.00000000000e+00,-1.73901815992e-01
0.00000000000e+00,-1.29039313412e-02
1.07234000000e+07,0.00000000000e+00
1.44515549897e+08,1.60997884650e-01
*ELEMENT,TYPE=SPRINGA,ELSET=E53
53,53,54
*SPRING,ELSET=E53,NONLINEAR
0.00000000000e+00,-3.47989727606e-01
0.00000000000e+00,-2.58334862633e-02
1.07287000000e+07,0.00000000000e+00
1.44520849897e+08,3.22156241343e-01
*ELEMENT,TYPE=SPRINGA,ELSET=E54
54,54,55
*SPRING,ELSET=E54,NONLINEAR
0.00000000000e+00,-1.74095983693e-01
0.00000000000e+00,-1.29307178869e-02
1.07345000000e+07,0.00000000000e+00
1.44526649897e+08,1.61165265806e-01
*ELEMENT,TYPE=SPRINGA,ELSET=E55
55,55,56
*SPRING,ELSET=E55,NONLINEAR
0.00000000000e+00,-1.74172915756e-01
0.00000000000e+00,-1.29413404687e-02
1.07389000000e+07,0.00000000000e+00
1.44531049897e+08,1.61231575288e-01
*ELEMENT,TYPE=SPRINGA,ELSET=E56
56,56,57
*SPRING,ELSET=E56,NONLINEAR
0.00000000000e+00,-1.74238129707e-01
0.00000000000e+00,-1.29503149486e-02
1.07426000000e+07,0.00000000000e+00
1.44534749897e+08,1.61287814758e-01
*ELEMENT,TYPE=SPRINGA,ELSET=E57
57,57,58
*SPRING,ELSET=E57,NONLINEAR
0.00000000000e+00,-1.74302964553e-01
0.00000000000e+00,-1.29593757486e-02
1.07464000000e+07,0.00000000000e+00
1.44538549897e+08,1.61343588805e-01
*ELEMENT,TYPE=SPRINGA,ELSET=E58
58,58,59
*SPRING,ELSET=E58,NONLINEAR
0.00000000000e+00,-3.48793727093e-01
0.00000000000e+00,-2.59447759497e-02
1.07518000000e+07,0.00000000000e+00
1.44543949897e+08,3.22848951144e-01
*ELEMENT,TYPE=SPRINGA,ELSET=E59
59,59,60
*SPRING,ELSET=E59,NONLINEAR
0.00000000000e+00,-3.49055979995e-01
0.00000000000e+00,-2.59810469437e-02
1.07593000000e+07,0.00000000000e+00
1.44551449897e+08,3.23074933051e-01
*ELEMENT,TYPE=SPRINGA,ELSET=E60
60,60,61
*SPRING,ELSET=E60,NONLINEAR
0.00000000000e+00,-1.74623292325e-01
0.00000000000e+00,-1.30036546606e-02
1.07647000000e+07,0.00000000000e+00
1.44556849897e+08,1.61619637664e-01
*ELEMENT,TYPE=SPRINGA,ELSET=E61
61,61,62
*SPRING,ELSET=E61,NONLINEAR
0.00000000000e+00,-1.74689041262e-01
0.00000000000e+00,-1.30128008014e-02
1.07685000000e+07,0.00000000000e+00
1.44560649897e+08,1.61676240461e-01
*ELEMENT,TYPE=SPRINGA,ELSET=E62
62,62,63
*SPRING,ELSET=E62,NONLINEAR
0.00000000000e+00,-3.49568805070e-01
0.00000000000e+00,-2.60521173768e-02
1.07740000000e+07,0.00000000000e+00
1.44566149897e+08,3.23516687694e-01
*ELEMENT,TYPE=SPRINGA,ELSET=E63
63,63,64
*SPRING,ELSET=E63,NONLINEAR
0.00000000000e+00,-3.49834976320e-01
0.00000000000e+00,-2.60889738516e-02
1.07816000000e+07,0.00000000000e+00
1.44573749897e+08,3.23746002468e-01
*ELEMENT,TYPE=SPRINGA,ELSET=E64
64,64,65
*SPRING,ELSET=E64,NONLINEAR
0.00000000000e+00,-1.75014356507e-01
0.00000000000e+00,-1.30579841994e-02
1.07872000000e+07,0.00000000000e+00
1.44579349897e+08,1.61956372308e-01
*ELEMENT,TYPE=SPRINGA,ELSET=E65
65,65,66
*SPRING,ELSET=E65,NONLINEAR
0.00000000000e+00,-1.75081021181e-01
0.00000000000e+00,-1.30672163451e-02
1.07910000000e+07,0.00000000000e+00
1.44583149897e+08,1.62013804836e-01
*ELEMENT,TYPE=SPRINGA,ELSET=E66
66,66,67
*SPRING,ELSET=E66,NONLINEAR
0.00000000000e+00,-3.50355696066e-01
0.00000000000e+00,-2.61614427875e-02
1.07966000000e+07,0.00000000000e+00
1.44588749897e+08,3.24194253279e-01
*ELEMENT,TYPE=SPRINGA,ELSET=E67
67,67,68
*SPRING,ELSET=E67,NONLINEAR
0.00000000000e+00,-3.50625793270e-01
0.00000000000e+00,-2.61988884300e-02
1.08043000000e+07,0.00000000000e+00
1.44596449897e+08,3.24426904840e-01
*ELEMENT,TYPE=SPRINGA,ELSET=E68
68,68,69
*SPRING,ELSET=E68,NONLINEAR
0.00000000000e+00,-1.75432259631e-01
0.00000000000e+00,-1.31159963794e-02
1.08111000000e+07,0.00000000000e+00
1.44603249897e+08,1.62316263252e-01
*ELEMENT,TYPE=SPRINGA,ELSET=E69
69,69,70
*SPRING,ELSET=E69,NONLINEAR
0.00000000000e+00,-1.75500011635e-01
0.00000000000e+00,-1.31254410808e-02
1.08150000000e+07,0.00000000000e+00
1.44607149897e+08,1.62374570555e-01
*ELEMENT,TYPE=SPRINGA,ELSET=E70
70,70,71
*SPRING,ELSET=E70,NONLINEAR
0.00000000000e+00,-3.51196757546e-01
0.00000000000e+00,-2.62784030401e-02
1.08207000000e+07,0.00000000000e+00
1.44612849897e+08,3.24918354506e-01
*ELEMENT,TYPE=SPRINGA,ELSET=E71
71,71,72
*SPRING,ELSET=E71,NONLINEAR
0.00000000000e+00,-3.51470983834e-01
0.00000000000e+00,-2.63164600018e-02
1.08285000000e+07,0.00000000000e+00
1.44620649897e+08,3.25154523832e-01
*ELEMENT,TYPE=SPRINGA,ELSET=E72
72,72,73
*SPRING,ELSET=E72,NONLINEAR
0.00000000000e+00,-1.75835208640e-01
0.00000000000e+00,-1.31721074258e-02
1.08342000000e+07,0.00000000000e+00
1.44626349897e+08,1.62663101214e-01
*ELEMENT,TYPE=SPRINGA,ELSET=E73
73,73,74
*SPRING,ELSET=E73,NONLINEAR
0.00000000000e+00,-1.75904001625e-01
0.00000000000e+00,-1.31817613093e-02
1.08382000000e+07,0.00000000000e+00
1.44630349897e+08,1.62722240316e-01
*ELEMENT,TYPE=SPRINGA,ELSET=E74
74,74,75
*SPRING,ELSET=E74,NONLINEAR
0.00000000000e+00,-3.52007438777e-01
0.00000000000e+00,-2.63913005649e-02
1.08439000000e+07,0.00000000000e+00
1.44636049897e+08,3.25616138212e-01
*ELEMENT,TYPE=SPRINGA,ELSET=E75
75,75,76
*SPRING,ELSET=E75,NONLINEAR
0.00000000000e+00,-3.52285850021e-01
0.00000000000e+00,-2.64301975682e-02
1.08519000000e+07,0.00000000000e+00
1.44644049897e+08,3.25855652453e-01
*ELEMENT,TYPE=SPRINGA,ELSET=E76
76,76,77
*SPRING,ELSET=E76,NONLINEAR
0.00000000000e+00,-1.76244095977e-01
0.00000000000e+00,-1.32292257632e-02
1.08577000000e+07,0.00000000000e+00
1.44649849897e+08,1.63014870214e-01
*ELEMENT,TYPE=SPRINGA,ELSET=E77
77,77,78
*SPRING,ELSET=E77,NONLINEAR
0.00000000000e+00,-1.76313810281e-01
0.00000000000e+00,-1.32389681609e-02
1.08617000000e+07,0.00000000000e+00
1.44653849897e+08,1.63074842120e-01
*ELEMENT,TYPE=SPRINGA,ELSET=E78
78,78,79
*SPRING,ELSET=E78,NONLINEAR
0.00000000000e+00,-3.52830006757e-01
0.00000000000e+00,-2.65062171874e-02
1.08675000000e+07,0.00000000000e+00
1.44659649897e+08,3.26323789569e-01
*ELEMENT,TYPE=SPRINGA,ELSET=E79
79,79,80
*SPRING,ELSET=E79,NONLINEAR
0.00000000000e+00,-3.53112367862e-01
0.00000000000e+00,-2.65457150654e-02
1.08756000000e+07,0.00000000000e+00
1.44667749897e+08,3.26566652797e-01
*ELEMENT,TYPE=SPRINGA,ELSET=E80
80,80,81
*SPRING,ELSET=E80,NONLINEAR
0.00000000000e+00,-1.76658690171e-01
0.00000000000e+00,-1.32871134537e-02
1.08814000000e+07,0.00000000000e+00
1.44673549897e+08,1.63371576718e-01
*ELEMENT,TYPE=SPRINGA,ELSET=E81
81,81,82
*SPRING,ELSET=E81,NONLINEAR
0.00000000000e+00,-1.77201084016e-01
0.00000000000e+00,-1.33631284876e-02
1.09125000000e+07,0.00000000000e+00
1.44704649897e+08,1.63837955529e-01
*ELEMENT,TYPE=SPRINGA,ELSET=E82
82,82,83
*SPRING,ELSET=E82,NONLINEAR
0.00000000000e+00,-3.54610796625e-01
0.00000000000e+00,-2.67555842345e-02
1.09185000000e+07,0.00000000000e+00
1.44710649897e+08,3.27855212391e-01
*ELEMENT,TYPE=SPRINGA,ELSET=E83
83,83,84
*SPRING,ELSET=E83,NONLINEAR
0.00000000000e+00,-3.54901520574e-01
0.00000000000e+00,-2.67963382665e-02
1.09268000000e+07,0.00000000000e+00
1.44718949897e+08,3.28105182308e-01
*ELEMENT,TYPE=SPRINGA,ELSET=E84
84,84,85
*SPRING,ELSET=E84,NONLINEAR
0.00000000000e+00,-1.77556349040e-01
0.00000000000e+00,-1.34129467944e-02
1.09328000000e+07,0.00000000000e+00
1.44724949897e+08,1.64143402246e-01
*ELEMENT,TYPE=SPRINGA,ELSET=E85
85,85,86
*SPRING,ELSET=E85,NONLINEAR
0.00000000000e+00,-1.77629192610e-01
0.00000000000e+00,-1.34232148877e-02
1.09370000000e+07,0.00000000000e+00
1.44729149897e+08,1.64205977722e-01
*ELEMENT,TYPE=SPRINGA,ELSET=E86
86,86,87
*SPRING,ELSET=E86,NONLINEAR
0.00000000000e+00,-3.55469985189e-01
0.00000000000e+00,-2.68762695866e-02
1.09431000000e+07,0.00000000000e+00
1.44735249897e+08,3.28593715602e-01
*ELEMENT,TYPE=SPRINGA,ELSET=E87
87,87,88
*SPRING,ELSET=E87,NONLINEAR
0.00000000000e+00,-3.55764684026e-01
0.00000000000e+00,-2.69176363860e-02
1.09515000000e+07,0.00000000000e+00
1.44743649897e+08,3.28847047640e-01
*ELEMENT,TYPE=SPRINGA,ELSET=E88
88,88,89
*SPRING,ELSET=E88,NONLINEAR
0.00000000000e+00,-1.77989398274e-01
0.00000000000e+00,-1.34738514707e-02
1.09576000000e+07,0.00000000000e+00
1.44749749897e+08,1.64515546804e-01
*ELEMENT,TYPE=SPRINGA,ELSET=E89
89,89,90
*SPRING,ELSET=E89,NONLINEAR
0.00000000000e+00,-1.78063293996e-01
0.00000000000e+00,-1.34843344545e-02
1.09619000000e+07,0.00000000000e+00
1.44754049897e+08,1.64578959542e-01
*ELEMENT,TYPE=SPRINGA,ELSET=E90
90,90,91
*SPRING,ELSET=E90,NONLINEAR
0.00000000000e+00,-3.56340920032e-01
0.00000000000e+00,-2.69987784186e-02
1.09680000000e+07,0.00000000000e+00
1.44760149897e+08,3.29342141613e-01
*ELEMENT,TYPE=SPRINGA,ELSET=E91
91,91,92
*SPRING,ELSET=E91,NONLINEAR
0.00000000000e+00,-3.56639848371e-01
0.00000000000e+00,-2.70410082453e-02
1.09766000000e+07,0.00000000000e+00
1.44768749897e+08,3.29598840126e-01
*ELEMENT,TYPE=SPRINGA,ELSET=E92
92,92,93
*SPRING,ELSET=E92,NONLINEAR
0.00000000000e+00,-1.78428451517e-01
0.00000000000e+00,-1.35357946849e-02
1.09828000000e+07,0.00000000000e+00
1.44774949897e+08,1.64892656832e-01
*ELEMENT,TYPE=SPRINGA,ELSET=E93
93,93,94
*SPRING,ELSET=E93,NONLINEAR
0.00000000000e+00,-1.78503155203e-01
0.00000000000e+00,-1.35462472850e-02
1.09870000000e+07,0.00000000000e+00
1.44779149897e+08,1.64956907918e-01
*ELEMENT,TYPE=SPRINGA,ELSET=E94
94,94,95
*SPRING,ELSET=E94,NONLINEAR
0.00000000000e+00,-3.57270218018e-01
0.00000000000e+00,-2.71298522953e-02
1.09946000000e+07,0.00000000000e+00
1.44786749897e+08,3.30140365723e-01
*ELEMENT,TYPE=SPRINGA,ELSET=E95
95,95,96
*SPRING,ELSET=E95,NONLINEAR
0.00000000000e+00,-3.57573334300e-01
0.00000000000e+00,-2.71727231215e-02
1.10033000000e+07,0.00000000000e+00
1.44795449897e+08,3.30400611179e-01
*ELEMENT,TYPE=SPRINGA,ELSET=E96
96,96,97
*SPRING,ELSET=E96,NONLINEAR
0.00000000000e+00,-1.78896616178e-01
0.00000000000e+00,-1.36017945735e-02
1.10095000000e+07,0.00000000000e+00
1.44801649897e+08,1.65294821604e-01
*ELEMENT,TYPE=SPRINGA,ELSET=E97
97,97,98
*SPRING,ELSET=E97,NONLINEAR
0.00000000000e+00,-1.78972548598e-01
0.00000000000e+00,-1.36125925291e-02
1.10139000000e+07,0.00000000000e+00
1.44806049897e+08,1.65359956069e-01
*ELEMENT,TYPE=SPRINGA,ELSET=E98
98,98,99
*SPRING,ELSET=E98,NONLINEAR
0.00000000000e+00,-3.58165548371e-01
0.00000000000e+00,-2.72563491924e-02
1.10202000000e+07,0.00000000000e+00
1.44812349897e+08,3.30909199179e-01
*ELEMENT,TYPE=SPRINGA,ELSET=E99
99,99,100
*SPRING,ELSET=E99,NONLINEAR
0.00000000000e+00,-3.58472665787e-01
0.00000000000e+00,-2.72998455942e-02
1.10290000000e+07,0.00000000000e+00
1.44821149897e+08,3.31172820193e-01
*ELEMENT,TYPE=SPRINGA,ELSET=E100
100,100,101
*SPRING,ELSET=E100,NONLINEAR
0.00000000000e+00,-1.79347760083e-01
0.00000000000e+00,-1.36656161401e-02
1.10353000000e+07,0.00000000000e+00
1.44827449897e+08,1.65682143943e-01
*ELEMENT,TYPE=SPRINGA,ELSET=E101
101,101,102
*SPRING,ELSET=E101,NONLINEAR
0.00000000000e+00,-1.79424627886e-01
0.00000000000e+00,-1.36765087643e-02
1.10397000000e+07,0.00000000000e+00
1.44831849897e+08,1.65748119121e-01
*ELEMENT,TYPE=SPRINGA,ELSET=E102
102,102,103
*SPRING,ELSET=E102,NONLINEAR
0.00000000000e+00,-3.59072705382e-01
0.00000000000e+00,-2.73847068280e-02
1.10461000000e+07,0.00000000000e+00
1.44838249897e+08,3.31687998554e-01
*ELEMENT,TYPE=SPRINGA,ELSET=E103
103,103,104
*SPRING,ELSET=E103,NONLINEAR
0.00000000000e+00,-3.59383832578e-01
0.00000000000e+00,-2.74288328902e-02
1.10550000000e+07,0.00000000000e+00
1.44847149897e+08,3.31954999688e-01
*ELEMENT,TYPE=SPRINGA,ELSET=E104
104,104,105
*SPRING,ELSET=E104,NONLINEAR
0.00000000000e+00,-1.79804949450e-01
0.00000000000e+00,-1.37304959161e-02
1.10615000000e+07,0.00000000000e+00
1.44853649897e+08,1.66074453534e-01
*ELEMENT,TYPE=SPRINGA,ELSET=E105
105,105,106
*SPRING,ELSET=E105,NONLINEAR
0.00000000000e+00,-1.79882754630e-01
0.00000000000e+00,-1.37414839967e-02
1.10659000000e+07,0.00000000000e+00
1.44858049897e+08,1.66141270633e-01
*ELEMENT,TYPE=SPRINGA,ELSET=E106
106,106,107
*SPRING,ELSET=E106,NONLINEAR
0.00000000000e+00,-1.80519592474e-01
0.00000000000e+00,-1.37953121628e-02
1.10704000000e+07,0.00000000000e+00
1.44862549897e+08,1.66724280311e-01
*ELEMENT,TYPE=SPRINGA,ELSET=E107
107,107,108
*SPRING,ELSET=E107,NONLINEAR
0.00000000000e+00,-1.79496733474e-01
0.00000000000e+00,-1.37233247383e-02
1.10758000000e+07,0.00000000000e+00
1.44867949897e+08,1.65773408736e-01
*ELEMENT,TYPE=SPRINGA,ELSET=E108
108,108,109
*SPRING,ELSET=E108,NONLINEAR
0.00000000000e+00,-3.60355364870e-01
0.00000000000e+00,-2.75668529350e-02
1.10828000000e+07,0.00000000000e+00
1.44874949897e+08,3.32788511935e-01
*ELEMENT,TYPE=SPRINGA,ELSET=E109
109,109,110
*SPRING,ELSET=E109,NONLINEAR
0.00000000000e+00,-1.80292147916e-01
0.00000000000e+00,-1.37996528700e-02
1.10893000000e+07,0.00000000000e+00
1.44881449897e+08,1.66492495046e-01
*ELEMENT,TYPE=SPRINGA,ELSET=E110
110,110,111
*SPRING,ELSET=E110,NONLINEAR
0.00000000000e+00,-1.80371065562e-01
0.00000000000e+00,-1.38108666061e-02
1.10938000000e+07,0.00000000000e+00
1.44885949897e+08,1.66560198956e-01
*ELEMENT,TYPE=SPRINGA,ELSET=E111
111,111,112
*SPRING,ELSET=E111,NONLINEAR
0.00000000000e+00,-3.60971742193e-01
0.00000000000e+00,-2.76544979703e-02
1.11004000000e+07,0.00000000000e+00
1.44892549897e+08,3.33317244222e-01
*ELEMENT,TYPE=SPRINGA,ELSET=E112
112,112,113
*SPRING,ELSET=E112,NONLINEAR
0.00000000000e+00,-3.61291112090e-01
0.00000000000e+00,-2.76999165477e-02
1.11095000000e+07,0.00000000000e+00
1.44901649897e+08,3.33591195543e-01
*ELEMENT,TYPE=SPRINGA,ELSET=E113
113,113,114
*SPRING,ELSET=E113,NONLINEAR
0.00000000000e+00,-1.80761511230e-01
0.00000000000e+00,-1.38664502291e-02
1.11161000000e+07,0.00000000000e+00
1.44908249897e+08,1.66895061001e-01
*ELEMENT,TYPE=SPRINGA,ELSET=E114
114,114,115
*SPRING,ELSET=E114,NONLINEAR
0.00000000000e+00,-1.80841495316e-01
0.00000000000e+00,-1.38778860425e-02
1.11207000000e+07,0.00000000000e+00
1.44912849897e+08,1.66963609273e-01
*ELEMENT,TYPE=SPRINGA,ELSET=E115
115,115,116
*SPRING,ELSET=E115,NONLINEAR
0.00000000000e+00,-3.61915371976e-01
0.00000000000e+00,-2.77888228354e-02
1.11273000000e+07,0.00000000000e+00
1.44919449897e+08,3.34126549141e-01
*ELEMENT,TYPE=SPRINGA,ELSET=E116
116,116,117
*SPRING,ELSET=E116,NONLINEAR
0.00000000000e+00,-3.62239028913e-01
0.00000000000e+00,-2.78351339694e-02
1.11366000000e+07,0.00000000000e+00
1.44928749897e+08,3.34403894944e-01
*ELEMENT,TYPE=SPRINGA,ELSET=E117
117,117,118
*SPRING,ELSET=E117,NONLINEAR
0.00000000000e+00,-1.81236963394e-01
0.00000000000e+00,-1.39343263199e-02
1.11433000000e+07,0.00000000000e+00
1.44935449897e+08,1.67302637074e-01
*ELEMENT,TYPE=SPRINGA,ELSET=E118
118,118,119
*SPRING,ELSET=E118,NONLINEAR
0.00000000000e+00,-1.81317891474e-01
0.00000000000e+00,-1.39458605389e-02
1.11479000000e+07,0.00000000000e+00
1.44940049897e+08,1.67372030935e-01
*ELEMENT,TYPE=SPRINGA,ELSET=E119
119,119,120
*SPRING,ELSET=E119,NONLINEAR
0.00000000000e+00,-3.62871190722e-01
0.00000000000e+00,-2.79253104116e-02
1.11546000000e+07,0.00000000000e+00
1.44946749897e+08,3.34945880310e-01
*ELEMENT,TYPE=SPRINGA,ELSET=E120
120,120,121
*SPRING,ELSET=E120,NONLINEAR
0.00000000000e+00,-3.64261906280e-01
0.00000000000e+00,-2.81244010069e-02
1.11943000000e+07,0.00000000000e+00
1.44986449897e+08,3.36137505273e-01
*ELEMENT,TYPE=SPRINGA,ELSET=E121
121,121,122
*SPRING,ELSET=E121,NONLINEAR
0.00000000000e+00,-1.82251530114e-01
0.00000000000e+00,-1.40795135816e-02
1.12012000000e+07,0.00000000000e+00
1.44993349897e+08,1.68172016533e-01
*ELEMENT,TYPE=SPRINGA,ELSET=E122
122,122,123
*SPRING,ELSET=E122,NONLINEAR
0.00000000000e+00,-1.82334566371e-01
0.00000000000e+00,-1.40913820479e-02
1.12059000000e+07,0.00000000000e+00
1.44998049897e+08,1.68243184323e-01
*ELEMENT,TYPE=SPRINGA,ELSET=E123
123,123,124
*SPRING,ELSET=E123,NONLINEAR
0.00000000000e+00,-3.64910875581e-01
0.00000000000e+00,-2.82174689114e-02
1.12128000000e+07,0.00000000000e+00
1.45004949897e+08,3.36693406670e-01
*ELEMENT,TYPE=SPRINGA,ELSET=E124
124,124,125
*SPRING,ELSET=E124,NONLINEAR
0.00000000000e+00,-3.65247057827e-01
0.00000000000e+00,-2.82657746045e-02
1.12224000000e+07,0.00000000000e+00
1.45014549897e+08,3.36981283222e-01
*ELEMENT,TYPE=SPRINGA,ELSET=E125
125,125,126
*SPRING,ELSET=E125,NONLINEAR
0.00000000000e+00,-1.82745612223e-01
0.00000000000e+00,-1.41504733562e-02
1.12294000000e+07,0.00000000000e+00
1.45021549897e+08,1.68595138867e-01
*ELEMENT,TYPE=SPRINGA,ELSET=E126
126,126,127
*SPRING,ELSET=E126,NONLINEAR
0.00000000000e+00,-1.82829725253e-01
0.00000000000e+00,-1.41625690841e-02
1.12342000000e+07,0.00000000000e+00
1.45026349897e+08,1.68667156169e-01
*ELEMENT,TYPE=SPRINGA,ELSET=E127
127,127,128
*SPRING,ELSET=E127,NONLINEAR
0.00000000000e+00,-3.65904242466e-01
0.00000000000e+00,-2.83603927878e-02
1.12412000000e+07,0.00000000000e+00
1.45033349897e+08,3.37543849678e-01
*ELEMENT,TYPE=SPRINGA,ELSET=E128
128,128,129
*SPRING,ELSET=E128,NONLINEAR
0.00000000000e+00,-3.66244501295e-01
0.00000000000e+00,-2.84093602730e-02
1.12509000000e+07,0.00000000000e+00
1.45043049897e+08,3.37835141022e-01
*ELEMENT,TYPE=SPRINGA,ELSET=E129
129,129,130
*SPRING,ELSET=E129,NONLINEAR
0.00000000000e+00,-1.83245718288e-01
0.00000000000e+00,-1.42224147691e-02
1.12579000000e+07,0.00000000000e+00
1.45050049897e+08,1.69023303519e-01
*ELEMENT,TYPE=SPRINGA,ELSET=E130
130,130,131
*SPRING,ELSET=E130,NONLINEAR
0.00000000000e+00,-1.83330784362e-01
0.00000000000e+00,-1.42346128137e-02
1.12627000000e+07,0.00000000000e+00
1.45054849897e+08,1.69096171548e-01
*ELEMENT,TYPE=SPRINGA,ELSET=E131
131,131,132
*SPRING,ELSET=E131,NONLINEAR
0.00000000000e+00,-3.66909417161e-01
0.00000000000e+00,-2.85050335560e-02
1.12698000000e+07,0.00000000000e+00
1.45061949897e+08,3.38404383605e-01
*ELEMENT,TYPE=SPRINGA,ELSET=E132
132,132,133
*SPRING,ELSET=E132,NONLINEAR
0.00000000000e+00,-1.84158350396e-01
0.00000000000e+00,-1.43161977579e-02
1.12775000000e+07,0.00000000000e+00
1.45069649897e+08,1.69842152638e-01
*ELEMENT,TYPE=SPRINGA,ELSET=E133
133,133,134
*SPRING,ELSET=E133,NONLINEAR
0.00000000000e+00,-1.83121668742e-01
0.00000000000e+00,-1.42423595887e-02
1.12833000000e+07,0.00000000000e+00
1.45075449897e+08,1.68879309154e-01
*ELEMENT,TYPE=SPRINGA,ELSET=E134
134,134,135
*SPRING,ELSET=E134,NONLINEAR
0.00000000000e+00,-1.83777868221e-01
0.00000000000e+00,-1.42991199948e-02
1.12882000000e+07,0.00000000000e+00
1.45080349897e+08,1.69478748227e-01
*ELEMENT,TYPE=SPRINGA,ELSET=E135
135,135,136
*SPRING,ELSET=E135,NONLINEAR
0.00000000000e+00,-1.83864065067e-01
0.00000000000e+00,-1.43115532054e-02
1.12931000000e+07,0.00000000000e+00
1.45085249897e+08,1.69552511862e-01
*ELEMENT,TYPE=SPRINGA,ELSET=E136
136,136,137
*SPRING,ELSET=E136,NONLINEAR
0.00000000000e+00,-3.67979186274e-01
0.00000000000e+00,-2.86594871173e-02
1.13003000000e+07,0.00000000000e+00
1.45092449897e+08,3.39319699156e-01
*ELEMENT,TYPE=SPRINGA,ELSET=E137
137,137,138
*SPRING,ELSET=E137,NONLINEAR
0.00000000000e+00,-3.68327823486e-01
0.00000000000e+00,-2.87098131226e-02
1.13102000000e+07,0.00000000000e+00
1.45102349897e+08,3.39618010363e-01
*ELEMENT,TYPE=SPRINGA,ELSET=E138
138,138,139
*SPRING,ELSET=E138,NONLINEAR
0.00000000000e+00,-1.84290483862e-01
0.00000000000e+00,-1.43732037177e-02
1.13174000000e+07,0.00000000000e+00
1.45109549897e+08,1.69917280144e-01
*ELEMENT,TYPE=SPRINGA,ELSET=E139
139,139,140
*SPRING,ELSET=E139,NONLINEAR
0.00000000000e+00,-1.84377765616e-01
0.00000000000e+00,-1.43858683702e-02
1.13224000000e+07,0.00000000000e+00
1.45114549897e+08,1.69991897246e-01
*ELEMENT,TYPE=SPRINGA,ELSET=E140
140,140,141
*SPRING,ELSET=E140,NONLINEAR
0.00000000000e+00,-3.69009405287e-01
0.00000000000e+00,-2.88084243824e-02
1.13296000000e+07,0.00000000000e+00
1.45121749897e+08,3.40200980905e-01
*ELEMENT,TYPE=SPRINGA,ELSET=E141
141,141,142
*SPRING,ELSET=E141,NONLINEAR
0.00000000000e+00,-3.69362403538e-01
0.00000000000e+00,-2.88596806998e-02
1.13397000000e+07,0.00000000000e+00
1.45131849897e+08,3.40502722838e-01
*ELEMENT,TYPE=SPRINGA,ELSET=E142
142,142,143
*SPRING,ELSET=E142,NONLINEAR
0.00000000000e+00,-1.84809297435e-01
0.00000000000e+00,-1.44484179457e-02
1.13470000000e+07,0.00000000000e+00
1.45139149897e+08,1.70360879489e-01
*ELEMENT,TYPE=SPRINGA,ELSET=E143
143,143,144
*SPRING,ELSET=E143,NONLINEAR
0.00000000000e+00,-1.84897539675e-01
0.00000000000e+00,-1.44611882179e-02
1.13520000000e+07,0.00000000000e+00
1.45144149897e+08,1.70436351457e-01
*ELEMENT,TYPE=SPRINGA,ELSET=E144
144,144,145
*SPRING,ELSET=E144,NONLINEAR
0.00000000000e+00,-3.70052032632e-01
0.00000000000e+00,-2.89596284244e-02
1.13593000000e+07,0.00000000000e+00
1.45151449897e+08,3.41092404208e-01
*ELEMENT,TYPE=SPRINGA,ELSET=E145
145,145,146
*SPRING,ELSET=E145,NONLINEAR
0.00000000000e+00,-3.70409148373e-01
0.00000000000e+00,-2.90115661775e-02
1.13695000000e+07,0.00000000000e+00
1.45161649897e+08,3.41397582195e-01
*ELEMENT,TYPE=SPRINGA,ELSET=E146
146,146,147
*SPRING,ELSET=E146,NONLINEAR
0.00000000000e+00,-1.85360902851e-01
0.00000000000e+00,-1.45285011216e-02
1.13784000000e+07,0.00000000000e+00
1.45170549897e+08,1.70832401730e-01
*ELEMENT,TYPE=SPRINGA,ELSET=E147
147,147,148
*SPRING,ELSET=E147,NONLINEAR
0.00000000000e+00,-1.85450284285e-01
0.00000000000e+00,-1.45415110086e-02
1.13835000000e+07,0.00000000000e+00
1.45175649897e+08,1.70908773276e-01
*ELEMENT,TYPE=SPRINGA,ELSET=E148
148,148,149
*SPRING,ELSET=E148,NONLINEAR
0.00000000000e+00,-3.71160752567e-01
0.00000000000e+00,-2.91208582504e-02
1.13909000000e+07,0.00000000000e+00
1.45183049897e+08,3.42039894317e-01
*ELEMENT,TYPE=SPRINGA,ELSET=E149
149,149,150
*SPRING,ELSET=E149,NONLINEAR
0.00000000000e+00,-3.71522192514e-01
0.00000000000e+00,-2.91735043258e-02
1.14012000000e+07,0.00000000000e+00
1.45193349897e+08,3.42348688189e-01
*ELEMENT,TYPE=SPRINGA,ELSET=E150
150,150,151
*SPRING,ELSET=E150,NONLINEAR
0.00000000000e+00,-3.71864354313e-01
0.00000000000e+00,-2.92232633105e-02
1.14109000000e+07,0.00000000000e+00
1.45203049897e+08,3.42641091002e-01
*ELEMENT,TYPE=SPRINGA,ELSET=E151
151,151,152
*SPRING,ELSET=E151,NONLINEAR
0.00000000000e+00,-3.11101793941e-01
0.00000000000e+00,-2.45300920926e-02
1.14524000000e+07,0.00000000000e+00
1.45244549897e+08,2.86571701848e-01
*ELEMENT,TYPE=SPRINGA,ELSET=E152
152,152,153
*SPRING,ELSET=E152,NONLINEAR
0.00000000000e+00,-3.11328184280e-01
0.00000000000e+00,-2.45631453365e-02
1.14601000000e+07,0.00000000000e+00
1.45252249897e+08,2.86765038944e-01
*ELEMENT,TYPE=SPRINGA,ELSET=E153
153,153,154
*SPRING,ELSET=E153,NONLINEAR
0.00000000000e+00,-8.46583336741e-02
0.00000000000e+00,-6.68199669525e-03
1.14650000000e+07,0.00000000000e+00
1.45257149897e+08,7.79763369788e-02
*ELEMENT,TYPE=SPRINGA,ELSET=E154
154,154,155
*SPRING,ELSET=E154,NONLINEAR
0.00000000000e+00,-8.77117844361e-02
0.00000000000e+00,-5.66158727369e-03
9.23186000000e+06,0.00000000000e+00
1.43024009897e+08,8.20501971625e-02
*ELEMENT,TYPE=SPRINGA,ELSET=E155
155,155,156
*SPRING,ELSET=E155,NONLINEAR
0.00000000000e+00,-6.94850931135e-01
0.00000000000e+00,-4.48509311250e-02
9.23185000000e+06,0.00000000000e+00
1.43023999897e+08,6.50000000010e-01
*ELEMENT,TYPE=SPRINGA,ELSET=E156
156,156,157
*SPRING,ELSET=E156,NONLINEAR
0.00000000000e+00,-8.97428910619e-02
0.00000000000e+00,-5.79269038028e-03
9.23186000000e+06,0.00000000000e+00
1.43024009897e+08,8.39502006817e-02
*ELEMENT,TYPE=SPRINGA,ELSET=E157
157,157,158
*SPRING,ELSET=E157,NONLINEAR
0.00000000000e+00,-8.17735793817e-02
0.00000000000e+00,-5.99842542128e-03
1.05911000000e+07,0.00000000000e+00
1.44383249897e+08,7.57751539604e-02
*ELEMENT,TYPE=SPRINGA,ELSET=E158
158,158,159
*SPRING,ELSET=E158,NONLINEAR
0.00000000000e+00,-2.47507116716e-01
0.00000000000e+00,-1.81491430483e-02
1.05870000000e+07,0.00000000000e+00
1.44379149897e+08,2.29357973667e-01
*ELEMENT,TYPE=SPRINGA,ELSET=E159
159,159,160
*SPRING,ELSET=E159,NONLINEAR
0.00000000000e+00,-3.27708039293e-01
0.00000000000e+00,-2.40149524654e-02
1.05798000000e+07,0.00000000000e+00
1.44371949897e+08,3.03693086828e-01
*ELEMENT,TYPE=SPRINGA,ELSET=E160
160,160,161
*SPRING,ELSET=E160,NONLINEAR
0.00000000000e+00,-4.47079785122e-01
0.00000000000e+00,-3.39673672211e-02
1.10008000000e+07,0.00000000000e+00
1.44792949897e+08,4.13112417901e-01
*ELEMENT,TYPE=SPRINGA,ELSET=E161
161,161,162
*SPRING,ELSET=E161,NONLINEAR
0.00000000000e+00,-5.22058319864e-01
0.00000000000e+00,-3.96312899513e-02
1.09910000000e+07,0.00000000000e+00
1.44783149897e+08,4.82427029913e-01
*ELEMENT,TYPE=SPRINGA,ELSET=E162
162,162,163
*SPRING,ELSET=E162,NONLINEAR
0.00000000000e+00,-5.21524007013e-01
0.00000000000e+00,-3.95557749553e-02
1.09805000000e+07,0.00000000000e+00
1.44772649897e+08,4.81968232058e-01
*ELEMENT,TYPE=SPRINGA,ELSET=E163
163,163,164
*SPRING,ELSET=E163,NONLINEAR
0.00000000000e+00,-5.20993741143e-01
0.00000000000e+00,-3.94809658165e-02
1.09701000000e+07,0.00000000000e+00
1.44762249897e+08,4.81512775326e-01
*ELEMENT,TYPE=SPRINGA,ELSET=E164
164,164,165
*SPRING,ELSET=E164,NONLINEAR
0.00000000000e+00,-5.20467518206e-01
0.00000000000e+00,-3.94068605645e-02
1.09598000000e+07,0.00000000000e+00
1.44751949897e+08,4.81060657642e-01
*ELEMENT,TYPE=SPRINGA,ELSET=E165
165,165,166
*SPRING,ELSET=E165,NONLINEAR
0.00000000000e+00,-1.73368308028e-01
0.00000000000e+00,-1.31186088395e-02
1.09527000000e+07,0.00000000000e+00
1.44744849897e+08,1.60249699188e-01
*ELEMENT,TYPE=SPRINGA,ELSET=E166
166,166,167
*SPRING,ELSET=E166,NONLINEAR
0.00000000000e+00,-3.46539620564e-01
0.00000000000e+00,-2.62094754322e-02
1.09469000000e+07,0.00000000000e+00
1.44739049897e+08,3.20330145132e-01
*ELEMENT,TYPE=SPRINGA,ELSET=E167
167,167,168
*SPRING,ELSET=E167,NONLINEAR
0.00000000000e+00,-5.19370634039e-01
0.00000000000e+00,-3.92528305006e-02
1.09384000000e+07,0.00000000000e+00
1.44730549897e+08,4.80117803538e-01
*ELEMENT,TYPE=SPRINGA,ELSET=E168
168,168,169
*SPRING,ELSET=E168,NONLINEAR
0.00000000000e+00,-5.18856559407e-01
0.00000000000e+00,-3.91805038072e-02
1.09283000000e+07,0.00000000000e+00
1.44720449897e+08,4.79676055600e-01
*ELEMENT,TYPE=SPRINGA,ELSET=E169
169,169,170
*SPRING,ELSET=E169,NONLINEAR
0.00000000000e+00,-5.18346512009e-01
0.00000000000e+00,-3.91088737966e-02
1.09183000000e+07,0.00000000000e+00
1.44710449897e+08,4.79237638212e-01
*ELEMENT,TYPE=SPRINGA,ELSET=E170
170,170,171
*SPRING,ELSET=E170,NONLINEAR
0.00000000000e+00,-5.17840487888e-01
0.00000000000e+00,-3.90379385711e-02
1.09084000000e+07,0.00000000000e+00
1.44700549897e+08,4.78802549317e-01
*ELEMENT,TYPE=SPRINGA,ELSET=E171
171,171,172
*SPRING,ELSET=E171,NONLINEAR
0.00000000000e+00,-5.17338483126e-01
0.00000000000e+00,-3.89676962502e-02
1.08986000000e+07,0.00000000000e+00
1.44690749897e+08,4.78370786876e-01
*ELEMENT,TYPE=SPRINGA,ELSET=E172
172,172,173
*SPRING,ELSET=E172,NONLINEAR
0.00000000000e+00,-3.44610673689e-01
0.00000000000e+00,-2.59389692554e-02
1.08903000000e+07,0.00000000000e+00
1.44682449897e+08,3.18671704434e-01
*ELEMENT,TYPE=SPRINGA,ELSET=E173
173,173,174
*SPRING,ELSET=E173,NONLINEAR
0.00000000000e+00,-1.72211427545e-01
0.00000000000e+00,-1.29563620734e-02
1.08848000000e+07,0.00000000000e+00
1.44676949897e+08,1.59255065471e-01
*ELEMENT,TYPE=SPRINGA,ELSET=E174
174,174,175
*SPRING,ELSET=E174,NONLINEAR
0.00000000000e+00,-5.16291793412e-01
0.00000000000e+00,-3.88212072759e-02
1.08781000000e+07,0.00000000000e+00
1.44670249897e+08,4.77470586136e-01
*ELEMENT,TYPE=SPRINGA,ELSET=E175
175,175,176
*SPRING,ELSET=E175,NONLINEAR
0.00000000000e+00,-5.15801513278e-01
0.00000000000e+00,-3.87523562637e-02
1.08684000000e+07,0.00000000000e+00
1.44660549897e+08,4.77049157014e-01
*ELEMENT,TYPE=SPRINGA,ELSET=E176
176,176,177
*SPRING,ELSET=E176,NONLINEAR
0.00000000000e+00,-5.15315594446e-01
0.00000000000e+00,-3.86845481765e-02
1.08589000000e+07,0.00000000000e+00
1.44651049897e+08,4.76631046269e-01
*ELEMENT,TYPE=SPRINGA,ELSET=E177
177,177,178
*SPRING,ELSET=E177,NONLINEAR
0.00000000000e+00,-5.14833676341e-01
0.00000000000e+00,-3.86174243411e-02
1.08495000000e+07,0.00000000000e+00
1.44641649897e+08,4.76216252000e-01
*ELEMENT,TYPE=SPRINGA,ELSET=E178
178,178,179
*SPRING,ELSET=E178,NONLINEAR
0.00000000000e+00,-5.14355399617e-01
0.00000000000e+00,-3.85506273418e-02
1.08401000000e+07,0.00000000000e+00
1.44632249897e+08,4.75804772275e-01
*ELEMENT,TYPE=SPRINGA,ELSET=E179
179,179,180
*SPRING,ELSET=E179,NONLINEAR
0.00000000000e+00,-5.13881116822e-01
0.00000000000e+00,-3.84845116494e-02
1.08308000000e+07,0.00000000000e+00
1.44622949897e+08,4.75396605173e-01
*ELEMENT,TYPE=SPRINGA,ELSET=E180
180,180,181
*SPRING,ELSET=E180,NONLINEAR
0.00000000000e+00,-5.12317609173e-01
0.00000000000e+00,-3.82667910263e-02
1.08001000000e+07,0.00000000000e+00
1.44592249897e+08,4.74050818146e-01
*ELEMENT,TYPE=SPRINGA,ELSET=E181
181,181,182
*SPRING,ELSET=E181,NONLINEAR
0.00000000000e+00,-5.11860558232e-01
0.00000000000e+00,-3.82034975668e-02
1.07912000000e+07,0.00000000000e+00
1.44583349897e+08,4.73657060665e-01
*ELEMENT,TYPE=SPRINGA,ELSET=E182
182,182,183
*SPRING,ELSET=E182,NONLINEAR
0.00000000000e+00,-5.11407128628e-01
0.00000000000e+00,-3.81405226645e-02
1.07823000000e+07,0.00000000000e+00
1.44574449897e+08,4.73266605964e-01
*ELEMENT,TYPE=SPRINGA,ELSET=E183
183,183,184
*SPRING,ELSET=E183,NONLINEAR
0.00000000000e+00,-5.10957671167e-01
0.00000000000e+00,-3.80782189562e-02
1.07735000000e+07,0.00000000000e+00
1.44565649897e+08,4.72879452211e-01
*ELEMENT,TYPE=SPRINGA,ELSET=E184
184,184,185
*SPRING,ELSET=E184,NONLINEAR
0.00000000000e+00,-5.10511829347e-01
0.00000000000e+00,-3.80162316299e-02
1.07647000000e+07,0.00000000000e+00
1.44556849897e+08,4.72495597717e-01
*ELEMENT,TYPE=SPRINGA,ELSET=E185
185,185,186
*SPRING,ELSET=E185,NONLINEAR
0.00000000000e+00,-5.10069953443e-01
0.00000000000e+00,-3.79549127619e-02
1.07560000000e+07,0.00000000000e+00
1.44548149897e+08,4.72115040681e-01
*ELEMENT,TYPE=SPRINGA,ELSET=E186
186,186,187
*SPRING,ELSET=E186,NONLINEAR
0.00000000000e+00,-1.70447995439e-01
0.00000000000e+00,-1.26766894796e-02
1.07500000000e+07,0.00000000000e+00
1.44542149897e+08,1.57771305959e-01
*ELEMENT,TYPE=SPRINGA,ELSET=E187
187,187,188
*SPRING,ELSET=E187,NONLINEAR
0.00000000000e+00,-3.39151952342e-01
0.00000000000e+00,-2.52132446105e-02
1.07452000000e+07,0.00000000000e+00
1.44537349897e+08,3.13938707732e-01
*ELEMENT,TYPE=SPRINGA,ELSET=E188
188,188,189
*SPRING,ELSET=E188,NONLINEAR
0.00000000000e+00,-5.09150094420e-01
0.00000000000e+00,-3.78277730825e-02
1.07380000000e+07,0.00000000000e+00
1.44530149897e+08,4.71322321337e-01
*ELEMENT,TYPE=SPRINGA,ELSET=E189
189,189,190
*SPRING,ELSET=E189,NONLINEAR
0.00000000000e+00,-5.08720145640e-01
0.00000000000e+00,-3.77681323631e-02
1.07295000000e+07,0.00000000000e+00
1.44521649897e+08,4.70952013277e-01
*ELEMENT,TYPE=SPRINGA,ELSET=E190
190,190,191
*SPRING,ELSET=E190,NONLINEAR
0.00000000000e+00,-5.08294501441e-01
0.00000000000e+00,-3.77095058189e-02
1.07212000000e+07,0.00000000000e+00
1.44513349897e+08,4.70584995622e-01
*ELEMENT,TYPE=SPRINGA,ELSET=E191
191,191,192
*SPRING,ELSET=E191,NONLINEAR
0.00000000000e+00,-5.07872454884e-01
0.00000000000e+00,-3.76511881474e-02
1.07129000000e+07,0.00000000000e+00
1.44505049897e+08,4.70221266736e-01
*ELEMENT,TYPE=SPRINGA,ELSET=E192
192,192,193
*SPRING,ELSET=E192,NONLINEAR
0.00000000000e+00,-5.07454354676e-01
0.00000000000e+00,-3.75935297854e-02
1.07047000000e+07,0.00000000000e+00
1.44496849897e+08,4.69860824891e-01
*ELEMENT,TYPE=SPRINGA,ELSET=E193
193,193,194
*SPRING,ELSET=E193,NONLINEAR
0.00000000000e+00,-3.38592604684e-01
0.00000000000e+00,-2.50688436737e-02
1.06978000000e+07,0.00000000000e+00
1.44489949897e+08,3.13523761010e-01
*ELEMENT,TYPE=SPRINGA,ELSET=E194
194,194,195
*SPRING,ELSET=E194,NONLINEAR
0.00000000000e+00,-1.68432263654e-01
0.00000000000e+00,-1.24654844452e-02
1.06932000000e+07,0.00000000000e+00
1.44485349897e+08,1.55966779209e-01
*ELEMENT,TYPE=SPRINGA,ELSET=E195
195,195,196
*SPRING,ELSET=E195,NONLINEAR
0.00000000000e+00,-5.06583895027e-01
0.00000000000e+00,-3.74735285765e-02
1.06876000000e+07,0.00000000000e+00
1.44479749897e+08,4.69110366450e-01
*ELEMENT,TYPE=SPRINGA,ELSET=E196
196,196,197
*SPRING,ELSET=E196,NONLINEAR
0.00000000000e+00,-5.06177666500e-01
0.00000000000e+00,-3.74175228791e-02
1.06796000000e+07,0.00000000000e+00
1.44471749897e+08,4.68760143621e-01
*ELEMENT,TYPE=SPRINGA,ELSET=E197
197,197,198
*SPRING,ELSET=E197,NONLINEAR
0.00000000000e+00,-5.05775372045e-01
0.00000000000e+00,-3.73621708248e-02
1.06717000000e+07,0.00000000000e+00
1.44463849897e+08,4.68413201220e-01
*ELEMENT,TYPE=SPRINGA,ELSET=E198
198,198,199
*SPRING,ELSET=E198,NONLINEAR
0.00000000000e+00,-5.05377008584e-01
0.00000000000e+00,-3.73074709275e-02
1.06639000000e+07,0.00000000000e+00
1.44456049897e+08,4.68069537657e-01
*ELEMENT,TYPE=SPRINGA,ELSET=E199
199,199,200
*SPRING,ELSET=E199,NONLINEAR
0.00000000000e+00,-5.04982223551e-01
0.00000000000e+00,-3.72530721294e-02
1.06561000000e+07,0.00000000000e+00
1.44448249897e+08,4.67729151421e-01
*ELEMENT,TYPE=SPRINGA,ELSET=E200
200,200,201
*SPRING,ELSET=E200,NONLINEAR
0.00000000000e+00,-5.04591364010e-01
0.00000000000e+00,-3.71993230735e-02
1.06484000000e+07,0.00000000000e+00
1.44440549897e+08,4.67392040937e-01
*ELEMENT,TYPE=SPRINGA,ELSET=E201
201,201,202
*SPRING,ELSET=E201,NONLINEAR
0.00000000000e+00,-5.03294138545e-01
0.00000000000e+00,-3.70213721365e-02
1.06229000000e+07,0.00000000000e+00
1.44415049897e+08,4.66272766408e-01
*ELEMENT,TYPE=SPRINGA,ELSET=E202
202,202,203
*SPRING,ELSET=E202,NONLINEAR
0.00000000000e+00,-5.02920350807e-01
0.00000000000e+00,-3.69703238215e-02
1.06156000000e+07,0.00000000000e+00
1.44407749897e+08,4.65950026985e-01
*ELEMENT,TYPE=SPRINGA,ELSET=E203
203,203,204
*SPRING,ELSET=E203,NONLINEAR
0.00000000000e+00,-5.02550125086e-01
0.00000000000e+00,-3.69195698196e-02
1.06083000000e+07,0.00000000000e+00
1.44400449897e+08,4.65630555266e-01
*ELEMENT,TYPE=SPRINGA,ELSET=E204
204,204,205
*SPRING,ELSET=E204,NONLINEAR
0.00000000000e+00,-5.02183807113e-01
0.00000000000e+00,-3.68694572730e-02
1.06011000000e+07,0.00000000000e+00
1.44393249897e+08,4.65314349840e-01
*ELEMENT,TYPE=SPRINGA,ELSET=E205
205,205,206
*SPRING,ELSET=E205,NONLINEAR
0.00000000000e+00,-5.01821394081e-01
0.00000000000e+00,-3.68199848302e-02
1.05940000000e+07,0.00000000000e+00
1.44386149897e+08,4.65001409251e-01
*ELEMENT,TYPE=SPRINGA,ELSET=E206
206,206,207
*SPRING,ELSET=E206,NONLINEAR
0.00000000000e+00,-5.01462535926e-01
0.00000000000e+00,-3.67708038347e-02
1.05869000000e+07,0.00000000000e+00
1.44379049897e+08,4.64691732092e-01
*ELEMENT,TYPE=SPRINGA,ELSET=E207
207,207,208
*SPRING,ELSET=E207,NONLINEAR
0.00000000000e+00,-1.67589228434e-01
0.00000000000e+00,-1.22835647279e-02
1.05820000000e+07,0.00000000000e+00
1.44374149897e+08,1.55305663706e-01
*ELEMENT,TYPE=SPRINGA,ELSET=E208
208,208,209
*SPRING,ELSET=E208,NONLINEAR
0.00000000000e+00,-3.33491992250e-01
0.00000000000e+00,-2.44351703051e-02
1.05781000000e+07,0.00000000000e+00
1.44370249897e+08,3.09056821945e-01
*ELEMENT,TYPE=SPRINGA,ELSET=E209
209,209,210
*SPRING,ELSET=E209,NONLINEAR
0.00000000000e+00,-5.00716968891e-01
0.00000000000e+00,-3.66688863441e-02
1.05722000000e+07,0.00000000000e+00
1.44364349897e+08,4.64048082547e-01
*ELEMENT,TYPE=SPRINGA,ELSET=E210
210,210,211
*SPRING,ELSET=E210,NONLINEAR
0.00000000000e+00,-5.00370203752e-01
0.00000000000e+00,-3.66216478078e-02
1.05654000000e+07,0.00000000000e+00
1.44357549897e+08,4.63748555945e-01
*ELEMENT,TYPE=SPRINGA,ELSET=E211
211,211,212
*SPRING,ELSET=E211,NONLINEAR
0.00000000000e+00,-5.00027330352e-01
0.00000000000e+00,-3.65750432142e-02
1.05587000000e+07,0.00000000000e+00
1.44350849897e+08,4.63452287138e-01
*ELEMENT,TYPE=SPRINGA,ELSET=E212
212,212,213
*SPRING,ELSET=E212,NONLINEAR
0.00000000000e+00,-4.99687999935e-01
0.00000000000e+00,-3.65287251273e-02
1.05520000000e+07,0.00000000000e+00
1.44344149897e+08,4.63159274808e-01
*ELEMENT,TYPE=SPRINGA,ELSET=E213
213,213,214
*SPRING,ELSET=E213,NONLINEAR
0.00000000000e+00,-4.99352556571e-01
0.00000000000e+00,-3.64830389169e-02
1.05454000000e+07,0.00000000000e+00
1.44337549897e+08,4.62869517654e-01
*ELEMENT,TYPE=SPRINGA,ELSET=E214
214,214,215
*SPRING,ELSET=E214,NONLINEAR
0.00000000000e+00,-3.33229655564e-01
0.00000000000e+00,-2.43340017662e-02
1.05398000000e+07,0.00000000000e+00
1.44331949897e+08,3.08895653797e-01
*ELEMENT,TYPE=SPRINGA,ELSET=E215
215,215,216
*SPRING,ELSET=E215,NONLINEAR
0.00000000000e+00,-1.65778842769e-01
0.00000000000e+00,-1.21021202309e-02
1.05362000000e+07,0.00000000000e+00
1.44328349897e+08,1.53676722538e-01
*ELEMENT,TYPE=SPRINGA,ELSET=E216
216,216,217
*SPRING,ELSET=E216,NONLINEAR
0.00000000000e+00,-4.98656093873e-01
0.00000000000e+00,-3.63882780815e-02
1.05317000000e+07,0.00000000000e+00
1.44323849897e+08,4.62267815792e-01
*ELEMENT,TYPE=SPRINGA,ELSET=E217
217,217,218
*SPRING,ELSET=E217,NONLINEAR
0.00000000000e+00,-4.98332352431e-01
0.00000000000e+00,-3.63441670622e-02
1.05253000000e+07,0.00000000000e+00
1.44317449897e+08,4.61988185369e-01
*ELEMENT,TYPE=SPRINGA,ELSET=E218
218,218,219
*SPRING,ELSET=E218,NONLINEAR
0.00000000000e+00,-4.98012488295e-01
0.00000000000e+00,-3.63006834061e-02
1.05190000000e+07,0.00000000000e+00
1.44311149897e+08,4.61711804889e-01
*ELEMENT,TYPE=SPRINGA,ELSET=E219
219,219,220
*SPRING,ELSET=E219,NONLINEAR
0.00000000000e+00,-4.97696499020e-01
0.00000000000e+00,-3.62578259348e-02
1.05128000000e+07,0.00000000000e+00
1.44304949897e+08,4.61438673085e-01
*ELEMENT,TYPE=SPRINGA,ELSET=E220
220,220,221
*SPRING,ELSET=E220,NONLINEAR
0.00000000000e+00,-4.97384382238e-01
0.00000000000e+00,-3.62155934894e-02
1.05067000000e+07,0.00000000000e+00
1.44298849897e+08,4.61168788749e-01
*ELEMENT,TYPE=SPRINGA,ELSET=E221
221,221,222
*SPRING,ELSET=E221,NONLINEAR
0.00000000000e+00,-4.97075791122e-01
0.00000000000e+00,-3.61736404357e-02
1.05006000000e+07,0.00000000000e+00
1.44292749897e+08,4.60902150686e-01
*ELEMENT,TYPE=SPRINGA,ELSET=E222
222,222,223
*SPRING,ELSET=E222,NONLINEAR
0.00000000000e+00,-4.96048270194e-01
0.00000000000e+00,-3.60341471281e-02
1.04803000000e+07,0.00000000000e+00
1.44272449897e+08,4.60014123066e-01
*ELEMENT,TYPE=SPRINGA,ELSET=E223
223,223,224
*SPRING,ELSET=E223,NONLINEAR
0.00000000000e+00,-4.95756624428e-01
0.00000000000e+00,-3.59947967355e-02
1.04746000000e+07,0.00000000000e+00
1.44266749897e+08,4.59761827693e-01
*ELEMENT,TYPE=SPRINGA,ELSET=E224
224,224,225
*SPRING,ELSET=E224,NONLINEAR
0.00000000000e+00,-4.95468493694e-01
0.00000000000e+00,-3.59557213630e-02
1.04689000000e+07,0.00000000000e+00
1.44261049897e+08,4.59512772331e-01
*ELEMENT,TYPE=SPRINGA,ELSET=E225
225,225,226
*SPRING,ELSET=E225,NONLINEAR
0.00000000000e+00,-4.95184219625e-01
0.00000000000e+00,-3.59172637769e-02
1.04633000000e+07,0.00000000000e+00
1.44255449897e+08,4.59266955848e-01
*ELEMENT,TYPE=SPRINGA,ELSET=E226
226,226,227
*SPRING,ELSET=E226,NONLINEAR
0.00000000000e+00,-4.94903800135e-01
0.00000000000e+00,-3.58794229374e-02
1.04578000000e+07,0.00000000000e+00
1.44249949897e+08,4.59024377197e-01
*ELEMENT,TYPE=SPRINGA,ELSET=E227
227,227,228
*SPRING,ELSET=E227,NONLINEAR
0.00000000000e+00,-4.94626890174e-01
0.00000000000e+00,-3.58418549057e-02
1.04523000000e+07,0.00000000000e+00
1.44244449897e+08,4.58785035268e-01
*ELEMENT,TYPE=SPRINGA,ELSET=E228
228,228,229
*SPRING,ELSET=E228,NONLINEAR
0.00000000000e+00,-1.65322821544e-01
0.00000000000e+00,-1.19757560497e-02
1.04486000000e+07,0.00000000000e+00
1.44240749897e+08,1.53347065495e-01
*ELEMENT,TYPE=SPRINGA,ELSET=E229
229,229,230
*SPRING,ELSET=E229,NONLINEAR
0.00000000000e+00,-3.29010638865e-01
0.00000000000e+00,-2.38265156893e-02
1.04455000000e+07,0.00000000000e+00
1.44237649897e+08,3.05184123176e-01
*ELEMENT,TYPE=SPRINGA,ELSET=E230
230,230,231
*SPRING,ELSET=E230,NONLINEAR
0.00000000000e+00,-4.94054410387e-01
0.00000000000e+00,-3.57647873010e-02
1.04411000000e+07,0.00000000000e+00
1.44233249897e+08,4.58289623086e-01
*ELEMENT,TYPE=SPRINGA,ELSET=E231
231,231,232
*SPRING,ELSET=E231,NONLINEAR
0.00000000000e+00,-4.93789104725e-01
0.00000000000e+00,-3.57287498212e-02
1.04358000000e+07,0.00000000000e+00
1.44227949897e+08,4.58060354904e-01
*ELEMENT,TYPE=SPRINGA,ELSET=E232
232,232,233
*SPRING,ELSET=E232,NONLINEAR
0.00000000000e+00,-4.93527986110e-01
0.00000000000e+00,-3.56936669078e-02
1.04307000000e+07,0.00000000000e+00
1.44222849897e+08,4.57834319202e-01
*ELEMENT,TYPE=SPRINGA,ELSET=E233
233,233,234
*SPRING,ELSET=E233,NONLINEAR
0.00000000000e+00,-4.93270367995e-01
0.00000000000e+00,-3.56588530347e-02
1.04256000000e+07,0.00000000000e+00
1.44217749897e+08,4.57611514961e-01
*ELEMENT,TYPE=SPRINGA,ELSET=E234
234,234,235
*SPRING,ELSET=E234,NONLINEAR
0.00000000000e+00,-4.93016590842e-01
0.00000000000e+00,-3.56246496249e-02
1.04206000000e+07,0.00000000000e+00
1.44212749897e+08,4.57391941217e-01
*ELEMENT,TYPE=SPRINGA,ELSET=E235
235,235,236
*SPRING,ELSET=E235,NONLINEAR
0.00000000000e+00,-3.29045416070e-01
0.00000000000e+00,-2.37674442632e-02
1.04164000000e+07,0.00000000000e+00
1.44208549897e+08,3.05277971806e-01
*ELEMENT,TYPE=SPRINGA,ELSET=E236
236,236,237
*SPRING,ELSET=E236,NONLINEAR
0.00000000000e+00,-1.63711747273e-01
0.00000000000e+00,-1.18221960818e-02
1.04136000000e+07,0.00000000000e+00
1.44205749897e+08,1.51889551191e-01
*ELEMENT,TYPE=SPRINGA,ELSET=E237
237,237,238
*SPRING,ELSET=E237,NONLINEAR
0.00000000000e+00,-4.92492372310e-01
0.00000000000e+00,-3.55541348093e-02
1.04103000000e+07,0.00000000000e+00
1.44202449897e+08,4.56938237501e-01
*ELEMENT,TYPE=SPRINGA,ELSET=E238
238,238,239
*SPRING,ELSET=E238,NONLINEAR
0.00000000000e+00,-4.92250166181e-01
0.00000000000e+00,-3.55214464858e-02
1.04055000000e+07,0.00000000000e+00
1.44197649897e+08,4.56728719696e-01
*ELEMENT,TYPE=SPRINGA,ELSET=E239
239,239,240
*SPRING,ELSET=E239,NONLINEAR
0.00000000000e+00,-4.92011793734e-01
0.00000000000e+00,-3.54893652424e-02
1.04008000000e+07,0.00000000000e+00
1.44192949897e+08,4.56522428492e-01
*ELEMENT,TYPE=SPRINGA,ELSET=E240
240,240,241
*SPRING,ELSET=E240,NONLINEAR
0.00000000000e+00,-4.91777253188e-01
0.00000000000e+00,-3.54578902057e-02
1.03962000000e+07,0.00000000000e+00
1.44188349897e+08,4.56319362983e-01
*ELEMENT,TYPE=SPRINGA,ELSET=E241
241,241,242
*SPRING,ELSET=E241,NONLINEAR
0.00000000000e+00,-4.91546201865e-01
0.00000000000e+00,-3.54266796012e-02
1.03916000000e+07,0.00000000000e+00
1.44183749897e+08,4.56119522264e-01
*ELEMENT,TYPE=SPRINGA,ELSET=E242
242,242,243
*SPRING,ELSET=E242,NONLINEAR
0.00000000000e+00,-4.91318979268e-01
0.00000000000e+00,-3.53960737984e-02
1.03871000000e+07,0.00000000000e+00
1.44179249897e+08,4.55922905469e-01
*ELEMENT,TYPE=SPRINGA,ELSET=E243
243,243,244
*SPRING,ELSET=E243,NONLINEAR
0.00000000000e+00,-4.90565088872e-01
0.00000000000e+00,-3.52950278306e-02
1.03723000000e+07,0.00000000000e+00
1.44164449897e+08,4.55270061041e-01
*ELEMENT,TYPE=SPRINGA,ELSET=E244
244,244,245
*SPRING,ELSET=E244,NONLINEAR
0.00000000000e+00,-4.90354376670e-01
0.00000000000e+00,-3.52666093211e-02
1.03681000000e+07,0.00000000000e+00
1.44160249897e+08,4.55087767349e-01
*ELEMENT,TYPE=SPRINGA,ELSET=E245
245,245,246
*SPRING,ELSET=E245,NONLINEAR
0.00000000000e+00,-4.90147484708e-01
0.00000000000e+00,-3.52387916516e-02
1.03640000000e+07,0.00000000000e+00
1.44156149897e+08,4.54908693057e-01
*ELEMENT,TYPE=SPRINGA,ELSET=E246
246,246,247
*SPRING,ELSET=E246,NONLINEAR
0.00000000000e+00,-4.89944411449e-01
0.00000000000e+00,-3.52115740642e-02
1.03600000000e+07,0.00000000000e+00
1.44152149897e+08,4.54732837385e-01
*ELEMENT,TYPE=SPRINGA,ELSET=E247
247,247,248
*SPRING,ELSET=E247,NONLINEAR
0.00000000000e+00,-4.89745155377e-01
0.00000000000e+00,-3.51849558161e-02
1.03561000000e+07,0.00000000000e+00
1.44148249897e+08,4.54560199561e-01
*ELEMENT,TYPE=SPRINGA,ELSET=E248
248,248,249
*SPRING,ELSET=E248,NONLINEAR
0.00000000000e+00,-3.26891839018e-01
0.00000000000e+00,-2.34780742121e-02
1.03528000000e+07,0.00000000000e+00
1.44144949897e+08,3.03413764806e-01
*ELEMENT,TYPE=SPRINGA,ELSET=E249
249,249,250
*SPRING,ELSET=E249,NONLINEAR
0.00000000000e+00,-1.62650284622e-01
0.00000000000e+00,-1.16795887217e-02
1.03506000000e+07,0.00000000000e+00
1.44142749897e+08,1.50970695900e-01
*ELEMENT,TYPE=SPRINGA,ELSET=E250
250,250,251
*SPRING,ELSET=E250,NONLINEAR
0.00000000000e+00,-4.89335618313e-01
0.00000000000e+00,-3.51300104927e-02
1.03480000000e+07,0.00000000000e+00
1.44140149897e+08,4.54205607821e-01
*ELEMENT,TYPE=SPRINGA,ELSET=E251
251,251,252
*SPRING,ELSET=E251,NONLINEAR
0.00000000000e+00,-4.89147866520e-01
0.00000000000e+00,-3.51048765199e-02
1.03443000000e+07,0.00000000000e+00
1.44136449897e+08,4.54042990001e-01
*ELEMENT,TYPE=SPRINGA,ELSET=E252
252,252,253
*SPRING,ELSET=E252,NONLINEAR
0.00000000000e+00,-4.88963926276e-01
0.00000000000e+00,-3.50803392569e-02
1.03407000000e+07,0.00000000000e+00
1.44132849897e+08,4.53883587020e-01
*ELEMENT,TYPE=SPRINGA,ELSET=E253
253,253,254
*SPRING,ELSET=E253,NONLINEAR
0.00000000000e+00,-4.88783457092e-01
0.00000000000e+00,-3.50560589049e-02
1.03371000000e+07,0.00000000000e+00
1.44129249897e+08,4.53727398187e-01
*ELEMENT,TYPE=SPRINGA,ELSET=E254
254,254,255
*SPRING,ELSET=E254,NONLINEAR
0.00000000000e+00,-4.88606796986e-01
0.00000000000e+00,-3.50323741659e-02
1.03336000000e+07,0.00000000000e+00
1.44125749897e+08,4.53574422820e-01
*ELEMENT,TYPE=SPRINGA,ELSET=E255
255,255,256
*SPRING,ELSET=E255,NONLINEAR
0.00000000000e+00,-1.63333241163e-01
0.00000000000e+00,-1.17082234233e-02
1.03312000000e+07,0.00000000000e+00
1.44123349897e+08,1.51625017740e-01
*ELEMENT,TYPE=SPRINGA,ELSET=E256
256,256,257
*SPRING,ELSET=E256,NONLINEAR
0.00000000000e+00,-3.25087658055e-01
0.00000000000e+00,-2.32992933998e-02
1.03293000000e+07,0.00000000000e+00
1.44121449897e+08,3.01788364655e-01
*ELEMENT,TYPE=SPRINGA,ELSET=E257
257,257,258
*SPRING,ELSET=E257,NONLINEAR
0.00000000000e+00,-4.88245522390e-01
0.00000000000e+00,-3.49841425143e-02
1.03265000000e+07,0.00000000000e+00
1.44118649897e+08,4.53261379876e-01
*ELEMENT,TYPE=SPRINGA,ELSET=E258
258,258,259
*SPRING,ELSET=E258,NONLINEAR
0.00000000000e+00,-4.88080682359e-01
0.00000000000e+00,-3.49622702618e-02
1.03233000000e+07,0.00000000000e+00
1.44115449897e+08,4.53118412097e-01
*ELEMENT,TYPE=SPRINGA,ELSET=E259
259,259,260
*SPRING,ELSET=E259,NONLINEAR
0.00000000000e+00,-4.87919307656e-01
0.00000000000e+00,-3.49406525160e-02
1.03201000000e+07,0.00000000000e+00
1.44112249897e+08,4.52978655140e-01
*ELEMENT,TYPE=SPRINGA,ELSET=E260
260,260,261
*SPRING,ELSET=E260,NONLINEAR
0.00000000000e+00,-4.87761735860e-01
0.00000000000e+00,-3.49196274661e-02
1.03170000000e+07,0.00000000000e+00
1.44109149897e+08,4.52842108394e-01
*ELEMENT,TYPE=SPRINGA,ELSET=E261
261,261,262
*SPRING,ELSET=E261,NONLINEAR
0.00000000000e+00,-3.79766190821e-01
0.00000000000e+00,-2.71812064365e-02
1.03142000000e+07,0.00000000000e+00
1.44106349897e+08,3.52584984384e-01
*ELEMENT,TYPE=SPRINGA,ELSET=E262
262,262,263
*SPRING,ELSET=E262,NONLINEAR
0.00000000000e+00,-1.07761980595e-01
0.00000000000e+00,-7.70707300426e-03
1.03058000000e+07,0.00000000000e+00
1.44097949897e+08,1.00054907591e-01
*ELEMENT,TYPE=SPRINGA,ELSET=E263
263,263,264
*SPRING,ELSET=E263,NONLINEAR
0.00000000000e+00,-4.87103788166e-01
0.00000000000e+00,-3.48317247675e-02
1.03040000000e+07,0.00000000000e+00
1.44096149897e+08,4.52272063399e-01
*ELEMENT,TYPE=SPRINGA,ELSET=E264
264,264,265
*SPRING,ELSET=E264,NONLINEAR
0.00000000000e+00,-4.86966470788e-01
0.00000000000e+00,-3.48134332901e-02
1.03013000000e+07,0.00000000000e+00
1.44093449897e+08,4.52153037498e-01
*ELEMENT,TYPE=SPRINGA,ELSET=E265
265,265,266
*SPRING,ELSET=E265,NONLINEAR
0.00000000000e+00,-4.86832611688e-01
0.00000000000e+00,-3.47953934469e-02
1.02986000000e+07,0.00000000000e+00
1.44090749897e+08,4.52037218241e-01
*ELEMENT,TYPE=SPRINGA,ELSET=E266
266,266,267
*SPRING,ELSET=E266,NONLINEAR
0.00000000000e+00,-4.86702885685e-01
0.00000000000e+00,-3.47782805668e-02
1.02961000000e+07,0.00000000000e+00
1.44088249897e+08,4.51924605118e-01
*ELEMENT,TYPE=SPRINGA,ELSET=E267
267,267,268
*SPRING,ELSET=E267,NONLINEAR
0.00000000000e+00,-4.86576616178e-01
0.00000000000e+00,-3.47614185294e-02
1.02936000000e+07,0.00000000000e+00
1.44085749897e+08,4.51815197648e-01
*ELEMENT,TYPE=SPRINGA,ELSET=E268
268,268,269
*SPRING,ELSET=E268,NONLINEAR
0.00000000000e+00,-2.16718027054e-01
0.00000000000e+00,-1.54798537145e-02
1.02917000000e+07,0.00000000000e+00
1.44083849897e+08,2.01238173339e-01
*ELEMENT,TYPE=SPRINGA,ELSET=E269
269,269,270
*SPRING,ELSET=E269,NONLINEAR
0.00000000000e+00,-2.69728424897e-01
0.00000000000e+00,-1.92640495712e-02
1.02904000000e+07,0.00000000000e+00
1.44082549897e+08,2.50464375326e-01
*ELEMENT,TYPE=SPRINGA,ELSET=E270
270,270,271
*SPRING,ELSET=E270,NONLINEAR
0.00000000000e+00,-4.86321466267e-01
0.00000000000e+00,-3.47272059729e-02
1.02885000000e+07,0.00000000000e+00
1.44080649897e+08,4.51594260294e-01
*ELEMENT,TYPE=SPRINGA,ELSET=E271
271,271,272
*SPRING,ELSET=E271,NONLINEAR
0.00000000000e+00,-4.86206974991e-01
0.00000000000e+00,-3.47121364120e-02
1.02863000000e+07,0.00000000000e+00
1.44078449897e+08,4.51494838579e-01
*ELEMENT,TYPE=SPRINGA,ELSET=E272
272,272,273
*SPRING,ELSET=E272,NONLINEAR
0.00000000000e+00,-4.86095937047e-01
0.00000000000e+00,-3.46973163846e-02
1.02841000000e+07,0.00000000000e+00
1.44076249897e+08,4.51398620662e-01
*ELEMENT,TYPE=SPRINGA,ELSET=E273
273,273,274
*SPRING,ELSET=E273,NONLINEAR
0.00000000000e+00,-4.85988689147e-01
0.00000000000e+00,-3.46830830193e-02
1.02820000000e+07,0.00000000000e+00
1.44074149897e+08,4.51305606128e-01
*ELEMENT,TYPE=SPRINGA,ELSET=E274
274,274,275
*SPRING,ELSET=E274,NONLINEAR
0.00000000000e+00,-4.85884893250e-01
0.00000000000e+00,-3.46690986745e-02
1.02799000000e+07,0.00000000000e+00
1.44072049897e+08,4.51215794576e-01
*ELEMENT,TYPE=SPRINGA,ELSET=E275
275,275,276
*SPRING,ELSET=E275,NONLINEAR
0.00000000000e+00,-5.44825333396e-02
0.00000000000e+00,-3.88704318631e-03
1.02787000000e+07,0.00000000000e+00
1.44070849897e+08,5.05954901533e-02
*ELEMENT,TYPE=SPRINGA,ELSET=E276
276,276,277
*SPRING,ELSET=E276,NONLINEAR
0.00000000000e+00,-4.31292394444e-01
0.00000000000e+00,-3.07673936847e-02
1.02776000000e+07,0.00000000000e+00
1.44069749897e+08,4.00525000759e-01
*ELEMENT,TYPE=SPRINGA,ELSET=E277
277,277,278
*SPRING,ELSET=E277,NONLINEAR
0.00000000000e+00,-4.85677788462e-01
0.00000000000e+00,-3.46414856479e-02
1.02758000000e+07,0.00000000000e+00
1.44067949897e+08,4.51036302814e-01
*ELEMENT,TYPE=SPRINGA,ELSET=E278
278,278,279
*SPRING,ELSET=E278,NONLINEAR
0.00000000000e+00,-4.85585756745e-01
0.00000000000e+00,-3.46292870904e-02
1.02740000000e+07,0.00000000000e+00
1.44066149897e+08,4.50956469655e-01
*ELEMENT,TYPE=SPRINGA,ELSET=E279
279,279,280
*SPRING,ELSET=E279,NONLINEAR
0.00000000000e+00,-4.85497511457e-01
0.00000000000e+00,-3.46176734823e-02
1.02723000000e+07,0.00000000000e+00
1.44064449897e+08,4.50879837975e-01
*ELEMENT,TYPE=SPRINGA,ELSET=E280
280,280,281
*SPRING,ELSET=E280,NONLINEAR
0.00000000000e+00,-4.85412715003e-01
0.00000000000e+00,-3.46063075589e-02
1.02706000000e+07,0.00000000000e+00
1.44062749897e+08,4.50806407444e-01
*ELEMENT,TYPE=SPRINGA,ELSET=E281
281,281,282
*SPRING,ELSET=E281,NONLINEAR
0.00000000000e+00,-4.85331703814e-01
0.00000000000e+00,-3.45955260667e-02
1.02690000000e+07,0.00000000000e+00
1.44061149897e+08,4.50736177747e-01
*ELEMENT,TYPE=SPRINGA,ELSET=E282
282,282,283
*SPRING,ELSET=E282,NONLINEAR
0.00000000000e+00,-1.08298574292e-01
0.00000000000e+00,-7.71906569325e-03
1.02680000000e+07,0.00000000000e+00
1.44060149897e+08,1.00579508599e-01
*ELEMENT,TYPE=SPRINGA,ELSET=E283
283,283,284
*SPRING,ELSET=E283,NONLINEAR
0.00000000000e+00,-3.76820556849e-01
0.00000000000e+00,-2.68482199548e-02
1.02639000000e+07,0.00000000000e+00
1.44056049897e+08,3.49972336895e-01
*ELEMENT,TYPE=SPRINGA,ELSET=E284
284,284,285
*SPRING,ELSET=E284,NONLINEAR
0.00000000000e+00,-4.85014574931e-01
0.00000000000e+00,-3.45532210940e-02
1.02627000000e+07,0.00000000000e+00
1.44054849897e+08,4.50461353837e-01
*ELEMENT,TYPE=SPRINGA,ELSET=E285
285,285,286
*SPRING,ELSET=E285,NONLINEAR
0.00000000000e+00,-4.84953765956e-01
0.00000000000e+00,-3.45451369883e-02
1.02615000000e+07,0.00000000000e+00
1.44053649897e+08,4.50408628968e-01
*ELEMENT,TYPE=SPRINGA,ELSET=E286
286,286,287
*SPRING,ELSET=E286,NONLINEAR
0.00000000000e+00,-4.84896738998e-01
0.00000000000e+00,-3.45376357751e-02
1.02604000000e+07,0.00000000000e+00
1.44052549897e+08,4.50359103223e-01
*ELEMENT,TYPE=SPRINGA,ELSET=E287
287,287,288
*SPRING,ELSET=E287,NONLINEAR
0.00000000000e+00,-4.84843157062e-01
0.00000000000e+00,-3.45303806717e-02
1.02593000000e+07,0.00000000000e+00
1.44051449897e+08,4.50312776391e-01
*ELEMENT,TYPE=SPRINGA,ELSET=E288
288,288,289
*SPRING,ELSET=E288,NONLINEAR
0.00000000000e+00,-4.31387583397e-01
0.00000000000e+00,-3.07207878670e-02
1.02584000000e+07,0.00000000000e+00
1.44050549897e+08,4.00666795529e-01
*ELEMENT,TYPE=SPRINGA,ELSET=E289
289,289,290
*SPRING,ELSET=E289,NONLINEAR
0.00000000000e+00,-5.34054065257e-02
0.00000000000e+00,-3.80303457022e-03
1.02579000000e+07,0.00000000000e+00
1.44050049897e+08,4.96023719555e-02
*ELEMENT,TYPE=SPRINGA,ELSET=E290
290,290,291
*SPRING,ELSET=E290,NONLINEAR
0.00000000000e+00,-4.84742223374e-01
0.00000000000e+00,-3.45169413099e-02
1.02573000000e+07,0.00000000000e+00
1.44049449897e+08,4.50225282064e-01
*ELEMENT,TYPE=SPRINGA,ELSET=E291
291,291,292
*SPRING,ELSET=E291,NONLINEAR
0.00000000000e+00,-4.84700384751e-01
0.00000000000e+00,-3.45114619245e-02
1.02565000000e+07,0.00000000000e+00
1.44048649897e+08,4.50188922827e-01
*ELEMENT,TYPE=SPRINGA,ELSET=E292
292,292,293
*SPRING,ELSET=E292,NONLINEAR
0.00000000000e+00,-4.84662326358e-01
0.00000000000e+00,-3.45065645864e-02
1.02558000000e+07,0.00000000000e+00
1.44047949897e+08,4.50155761772e-01
*ELEMENT,TYPE=SPRINGA,ELSET=E293
293,293,294
*SPRING,ELSET=E293,NONLINEAR
0.00000000000e+00,-4.84627711481e-01
0.00000000000e+00,-3.45019127235e-02
1.02551000000e+07,0.00000000000e+00
1.44047249897e+08,4.50125798757e-01
*ELEMENT,TYPE=SPRINGA,ELSET=E294
294,294,295
*SPRING,ELSET=E294,NONLINEAR
0.00000000000e+00,-4.84596876348e-01
0.00000000000e+00,-3.44978426924e-02
1.02545000000e+07,0.00000000000e+00
1.44046649897e+08,4.50099033655e-01
*ELEMENT,TYPE=SPRINGA,ELSET=E295
295,295,296
*SPRING,ELSET=E295,NONLINEAR
0.00000000000e+00,-2.69665796131e-01
0.00000000000e+00,-1.91962997658e-02
1.02540000000e+07,0.00000000000e+00
1.44046149897e+08,2.50469496365e-01
*ELEMENT,TYPE=SPRINGA,ELSET=E296
296,296,297
*SPRING,ELSET=E296,NONLINEAR
0.00000000000e+00,-2.14902506419e-01
0.00000000000e+00,-1.52975308323e-02
1.02537000000e+07,0.00000000000e+00
1.44045849897e+08,1.99604975587e-01
*ELEMENT,TYPE=SPRINGA,ELSET=E297
297,297,298
*SPRING,ELSET=E297,NONLINEAR
0.00000000000e+00,-4.84543543558e-01
0.00000000000e+00,-3.44906092071e-02
1.02534000000e+07,0.00000000000e+00
1.44045549897e+08,4.50052934351e-01
*ELEMENT,TYPE=SPRINGA,ELSET=E298
298,298,299
*SPRING,ELSET=E298,NONLINEAR
0.00000000000e+00,-4.84524110633e-01
0.00000000000e+00,-3.44879762343e-02
1.02530000000e+07,0.00000000000e+00
1.44045149897e+08,4.50036134398e-01
*ELEMENT,TYPE=SPRINGA,ELSET=E299
299,299,300
*SPRING,ELSET=E299,NONLINEAR
0.00000000000e+00,-4.84508456724e-01
0.00000000000e+00,-3.44859247505e-02
1.02527000000e+07,0.00000000000e+00
1.44044849897e+08,4.50022531973e-01
*ELEMENT,TYPE=SPRINGA,ELSET=E300
300,300,301
*SPRING,ELSET=E300,NONLINEAR
0.00000000000e+00,-4.84496581717e-01
0.00000000000e+00,-3.44844546993e-02
1.02525000000e+07,0.00000000000e+00
1.44044649897e+08,4.50012127018e-01
*ELEMENT,TYPE=SPRINGA,ELSET=E301
301,301,302
*SPRING,ELSET=E301,NONLINEAR
0.00000000000e+00,-4.84488394371e-01
0.00000000000e+00,-3.44832471446e-02
1.02523000000e+07,0.00000000000e+00
1.44044449897e+08,4.50005147227e-01
*ELEMENT,TYPE=SPRINGA,ELSET=E302
302,302,303
*SPRING,ELSET=E302,NONLINEAR
0.00000000000e+00,-4.84488180383e-01
0.00000000000e+00,-3.44832319141e-02
1.02523000000e+07,0.00000000000e+00
1.44044449897e+08,4.50004948469e-01
*ELEMENT,TYPE=SPRINGA,ELSET=E303
303,303,304
*SPRING,ELSET=E303,NONLINEAR
0.00000000000e+00,-4.84496252131e-01
0.00000000000e+00,-3.44844312408e-02
1.02525000000e+07,0.00000000000e+00
1.44044649897e+08,4.50011820890e-01
*ELEMENT,TYPE=SPRINGA,ELSET=E304
304,304,305
*SPRING,ELSET=E304,NONLINEAR
0.00000000000e+00,-4.84508006703e-01
0.00000000000e+00,-3.44858927194e-02
1.02527000000e+07,0.00000000000e+00
1.44044849897e+08,4.50022113984e-01
*ELEMENT,TYPE=SPRINGA,ELSET=E305
305,305,306
*SPRING,ELSET=E305,NONLINEAR
0.00000000000e+00,-4.84523540175e-01
0.00000000000e+00,-3.44879356297e-02
1.02530000000e+07,0.00000000000e+00
1.44045149897e+08,4.50035604545e-01
*ELEMENT,TYPE=SPRINGA,ELSET=E306
306,306,307
*SPRING,ELSET=E306,NONLINEAR
0.00000000000e+00,-4.84542852660e-01
0.00000000000e+00,-3.44905600278e-02
1.02534000000e+07,0.00000000000e+00
1.44045549897e+08,4.50052292632e-01
*ELEMENT,TYPE=SPRINGA,ELSET=E307
307,307,308
*SPRING,ELSET=E307,NONLINEAR
0.00000000000e+00,-3.23499083443e-01
0.00000000000e+00,-2.30280330976e-02
1.02538000000e+07,0.00000000000e+00
1.44045949897e+08,3.00471050346e-01
*ELEMENT,TYPE=SPRINGA,ELSET=E308
308,308,309
*SPRING,ELSET=E308,NONLINEAR
0.00000000000e+00,-1.61067888796e-01
0.00000000000e+00,-1.14658051819e-02
1.02541000000e+07,0.00000000000e+00
1.44046249897e+08,1.49602083614e-01
*ELEMENT,TYPE=SPRINGA,ELSET=E309
309,309,310
*SPRING,ELSET=E309,NONLINEAR
0.00000000000e+00,-4.84595594098e-01
0.00000000000e+00,-3.44974389437e-02
1.02544000000e+07,0.00000000000e+00
1.44046549897e+08,4.50098155155e-01
*ELEMENT,TYPE=SPRINGA,ELSET=E310
310,310,311
*SPRING,ELSET=E310,NONLINEAR
0.00000000000e+00,-4.84626645189e-01
0.00000000000e+00,-3.45018368114e-02
1.02551000000e+07,0.00000000000e+00
1.44047249897e+08,4.50124808378e-01
*ELEMENT,TYPE=SPRINGA,ELSET=E311
311,311,312
*SPRING,ELSET=E311,NONLINEAR
0.00000000000e+00,-4.84660803143e-01
0.00000000000e+00,-3.45061436346e-02
1.02557000000e+07,0.00000000000e+00
1.44047849897e+08,4.50154659509e-01
*ELEMENT,TYPE=SPRINGA,ELSET=E312
312,312,313
*SPRING,ELSET=E312,NONLINEAR
0.00000000000e+00,-4.84699077523e-01
0.00000000000e+00,-3.45113688478e-02
1.02565000000e+07,0.00000000000e+00
1.44048649897e+08,4.50187708675e-01
*ELEMENT,TYPE=SPRINGA,ELSET=E313
313,313,314
*SPRING,ELSET=E313,NONLINEAR
0.00000000000e+00,-4.84740795667e-01
0.00000000000e+00,-3.45168396474e-02
1.02573000000e+07,0.00000000000e+00
1.44049449897e+08,4.50223956019e-01
*ELEMENT,TYPE=SPRINGA,ELSET=E314
314,314,315
*SPRING,ELSET=E314,NONLINEAR
0.00000000000e+00,-1.62048554225e-01
0.00000000000e+00,-1.15395854814e-02
1.02579000000e+07,0.00000000000e+00
1.44050049897e+08,1.50508968744e-01
*ELEMENT,TYPE=SPRINGA,ELSET=E315
315,315,316
*SPRING,ELSET=E315,NONLINEAR
0.00000000000e+00,-3.22741656644e-01
0.00000000000e+00,-2.29838968936e-02
1.02585000000e+07,0.00000000000e+00
1.44050649897e+08,2.99757759751e-01
*ELEMENT,TYPE=SPRINGA,ELSET=E316
316,316,317
*SPRING,ELSET=E316,NONLINEAR
0.00000000000e+00,-4.84841474272e-01
0.00000000000e+00,-3.45302608239e-02
1.02593000000e+07,0.00000000000e+00
1.44051449897e+08,4.50311213448e-01
*ELEMENT,TYPE=SPRINGA,ELSET=E317
317,317,318
*SPRING,ELSET=E317,NONLINEAR
0.00000000000e+00,-4.84894935694e-01
0.00000000000e+00,-3.45375073315e-02
1.02604000000e+07,0.00000000000e+00
1.44052549897e+08,4.50357428362e-01
*ELEMENT,TYPE=SPRINGA,ELSET=E318
318,318,319
*SPRING,ELSET=E318,NONLINEAR
0.00000000000e+00,-4.84951842128e-01
0.00000000000e+00,-3.45449999466e-02
1.02615000000e+07,0.00000000000e+00
1.44053649897e+08,4.50406842182e-01
*ELEMENT,TYPE=SPRINGA,ELSET=E319
319,319,320
*SPRING,ELSET=E319,NONLINEAR
0.00000000000e+00,-4.85012530568e-01
0.00000000000e+00,-3.45530754502e-02
1.02627000000e+07,0.00000000000e+00
1.44054849897e+08,4.50459455118e-01
*ELEMENT,TYPE=SPRINGA,ELSET=E320
320,320,321
*SPRING,ELSET=E320,NONLINEAR
0.00000000000e+00,-3.77734907368e-01
0.00000000000e+00,-2.69131233039e-02
1.02638000000e+07,0.00000000000e+00
1.44055949897e+08,3.50821784064e-01
*ELEMENT,TYPE=SPRINGA,ELSET=E321
321,321,322
*SPRING,ELSET=E321,NONLINEAR
0.00000000000e+00,-1.07381317018e-01
0.00000000000e+00,-7.65361823625e-03
1.02679000000e+07,0.00000000000e+00
1.44060049897e+08,9.97276987815e-02
*ELEMENT,TYPE=SPRINGA,ELSET=E322
322,322,323
*SPRING,ELSET=E322,NONLINEAR
0.00000000000e+00,-4.85328784318e-01
0.00000000000e+00,-3.45950050819e-02
1.02689000000e+07,0.00000000000e+00
1.44061049897e+08,4.50733779236e-01
*ELEMENT,TYPE=SPRINGA,ELSET=E323
323,323,324
*SPRING,ELSET=E323,NONLINEAR
0.00000000000e+00,-4.85409674881e-01
0.00000000000e+00,-3.46057778989e-02
1.02705000000e+07,0.00000000000e+00
1.44062649897e+08,4.50803896982e-01
*ELEMENT,TYPE=SPRINGA,ELSET=E324
324,324,325
*SPRING,ELSET=E324,NONLINEAR
0.00000000000e+00,-4.85494350691e-01
0.00000000000e+00,-3.46171351395e-02
1.02722000000e+07,0.00000000000e+00
1.44064349897e+08,4.50877215552e-01
*ELEMENT,TYPE=SPRINGA,ELSET=E325
325,325,326
*SPRING,ELSET=E325,NONLINEAR
0.00000000000e+00,-4.85582475318e-01
0.00000000000e+00,-3.46287400587e-02
1.02739000000e+07,0.00000000000e+00
1.44066049897e+08,4.50953735259e-01
*ELEMENT,TYPE=SPRINGA,ELSET=E326
326,326,327
*SPRING,ELSET=E326,NONLINEAR
0.00000000000e+00,-4.85674723468e-01
0.00000000000e+00,-3.46412670339e-02
1.02758000000e+07,0.00000000000e+00
1.44067949897e+08,4.51033456434e-01
*ELEMENT,TYPE=SPRINGA,ELSET=E327
327,327,328
*SPRING,ELSET=E327,NONLINEAR
0.00000000000e+00,-2.16345900212e-01
0.00000000000e+00,-1.54330542010e-02
1.02772000000e+07,0.00000000000e+00
1.44069349897e+08,2.00912846011e-01
*ELEMENT,TYPE=SPRINGA,ELSET=E328
328,328,329
*SPRING,ELSET=E328,NONLINEAR
0.00000000000e+00,-2.69431004337e-01
0.00000000000e+00,-1.92217952666e-02
1.02783000000e+07,0.00000000000e+00
1.44070449897e+08,2.50209209071e-01
*ELEMENT,TYPE=SPRINGA,ELSET=E329
329,329,330
*SPRING,ELSET=E329,NONLINEAR
0.00000000000e+00,-4.85881236614e-01
0.00000000000e+00,-3.46685245790e-02
1.02798000000e+07,0.00000000000e+00
1.44071949897e+08,4.51212712035e-01
*ELEMENT,TYPE=SPRINGA,ELSET=E330
330,330,331
*SPRING,ELSET=E330,NONLINEAR
0.00000000000e+00,-4.85984911796e-01
0.00000000000e+00,-3.46825002016e-02
1.02819000000e+07,0.00000000000e+00
1.44074049897e+08,4.51302411594e-01
*ELEMENT,TYPE=SPRINGA,ELSET=E331
331,331,332
*SPRING,ELSET=E331,NONLINEAR
0.00000000000e+00,-4.86092038959e-01
0.00000000000e+00,-3.46967248377e-02
1.02840000000e+07,0.00000000000e+00
1.44076149897e+08,4.51395314121e-01
*ELEMENT,TYPE=SPRINGA,ELSET=E332
332,332,333
*SPRING,ELSET=E332,NONLINEAR
0.00000000000e+00,-4.86202956143e-01
0.00000000000e+00,-3.47115361264e-02
1.02862000000e+07,0.00000000000e+00
1.44078349897e+08,4.51491420017e-01
*ELEMENT,TYPE=SPRINGA,ELSET=E333
333,333,334
*SPRING,ELSET=E333,NONLINEAR
0.00000000000e+00,-4.86317326637e-01
0.00000000000e+00,-3.47265969414e-02
1.02884000000e+07,0.00000000000e+00
1.44080549897e+08,4.51590729695e-01
*ELEMENT,TYPE=SPRINGA,ELSET=E334
334,334,335
*SPRING,ELSET=E334,NONLINEAR
0.00000000000e+00,-5.45024085769e-02
0.00000000000e+00,-3.89236045303e-03
1.02898000000e+07,0.00000000000e+00
1.44081949897e+08,5.06100481238e-02
*ELEMENT,TYPE=SPRINGA,ELSET=E335
335,335,336
*SPRING,ELSET=E335,NONLINEAR
0.00000000000e+00,-4.31945859867e-01
0.00000000000e+00,-3.08518731432e-02
1.02912000000e+07,0.00000000000e+00
1.44083349897e+08,4.01093986724e-01
*ELEMENT,TYPE=SPRINGA,ELSET=E336
336,336,337
*SPRING,ELSET=E336,NONLINEAR
0.00000000000e+00,-4.86572222190e-01
0.00000000000e+00,-3.47607910482e-02
1.02935000000e+07,0.00000000000e+00
1.44085649897e+08,4.51811431142e-01
*ELEMENT,TYPE=SPRINGA,ELSET=E337
337,337,338
*SPRING,ELSET=E337,NONLINEAR
0.00000000000e+00,-4.86698370873e-01
0.00000000000e+00,-3.47776443107e-02
1.02960000000e+07,0.00000000000e+00
1.44088149897e+08,4.51920726562e-01
*ELEMENT,TYPE=SPRINGA,ELSET=E338
338,338,339
*SPRING,ELSET=E338,NONLINEAR
0.00000000000e+00,-4.86827976026e-01
0.00000000000e+00,-3.47947484080e-02
1.02985000000e+07,0.00000000000e+00
1.44090649897e+08,4.52033227618e-01
*ELEMENT,TYPE=SPRINGA,ELSET=E339
339,339,340
*SPRING,ELSET=E339,NONLINEAR
0.00000000000e+00,-4.86961714251e-01
0.00000000000e+00,-3.48127794546e-02
1.03012000000e+07,0.00000000000e+00
1.44093349897e+08,4.52148934796e-01
*ELEMENT,TYPE=SPRINGA,ELSET=E340
340,340,341
*SPRING,ELSET=E340,NONLINEAR
0.00000000000e+00,-4.87098910719e-01
0.00000000000e+00,-3.48310621266e-02
1.03039000000e+07,0.00000000000e+00
1.44096049897e+08,4.52267848592e-01
*ELEMENT,TYPE=SPRINGA,ELSET=E341
341,341,342
*SPRING,ELSET=E341,NONLINEAR
0.00000000000e+00,-1.08767770321e-01
0.00000000000e+00,-7.77893640605e-03
1.03057000000e+07,0.00000000000e+00
1.44097849897e+08,1.00988833915e-01
*ELEMENT,TYPE=SPRINGA,ELSET=E342
342,342,343
*SPRING,ELSET=E342,NONLINEAR
0.00000000000e+00,-3.78754419869e-01
0.00000000000e+00,-2.71085464007e-02
1.03141000000e+07,0.00000000000e+00
1.44106249897e+08,3.51645873468e-01
*ELEMENT,TYPE=SPRINGA,ELSET=E343
343,343,344
*SPRING,ELSET=E343,NONLINEAR
0.00000000000e+00,-4.87755983205e-01
0.00000000000e+00,-3.49185871601e-02
1.03168000000e+07,0.00000000000e+00
1.44108949897e+08,4.52837396045e-01
*ELEMENT,TYPE=SPRINGA,ELSET=E344
344,344,345
*SPRING,ELSET=E344,NONLINEAR
0.00000000000e+00,-4.87913772463e-01
0.00000000000e+00,-3.49399418121e-02
1.03200000000e+07,0.00000000000e+00
1.44112149897e+08,4.52973830651e-01
*ELEMENT,TYPE=SPRINGA,ELSET=E345
345,345,346
*SPRING,ELSET=E345,NONLINEAR
0.00000000000e+00,-4.88074687460e-01
0.00000000000e+00,-3.49612120141e-02
1.03231000000e+07,0.00000000000e+00
1.44115249897e+08,4.53113475446e-01
*ELEMENT,TYPE=SPRINGA,ELSET=E346
346,346,347
*SPRING,ELSET=E346,NONLINEAR
0.00000000000e+00,-4.88239745094e-01
0.00000000000e+00,-3.49834140528e-02
1.03264000000e+07,0.00000000000e+00
1.44118549897e+08,4.53256331041e-01
*ELEMENT,TYPE=SPRINGA,ELSET=E347
347,347,348
*SPRING,ELSET=E347,NONLINEAR
0.00000000000e+00,-4.34638031168e-01
0.00000000000e+00,-3.11516964647e-02
1.03296000000e+07,0.00000000000e+00
1.44121749897e+08,4.03486334703e-01
*ELEMENT,TYPE=SPRINGA,ELSET=E348
348,348,349
*SPRING,ELSET=E348,NONLINEAR
0.00000000000e+00,-5.37726848955e-02
0.00000000000e+00,-3.85469348296e-03
1.03315000000e+07,0.00000000000e+00
1.44123649897e+08,4.99179914126e-02
*ELEMENT,TYPE=SPRINGA,ELSET=E349
349,349,350
*SPRING,ELSET=E349,NONLINEAR
0.00000000000e+00,-4.88600762389e-01
0.00000000000e+00,-3.50316267906e-02
1.03335000000e+07,0.00000000000e+00
1.44125649897e+08,4.53569135598e-01
*ELEMENT,TYPE=SPRINGA,ELSET=E350
350,350,351
*SPRING,ELSET=E350,NONLINEAR
0.00000000000e+00,-4.88777301294e-01
0.00000000000e+00,-3.50553026024e-02
1.03370000000e+07,0.00000000000e+00
1.44129149897e+08,4.53721998691e-01
*ELEMENT,TYPE=SPRINGA,ELSET=E351
351,351,352
*SPRING,ELSET=E351,NONLINEAR
0.00000000000e+00,-4.88957649239e-01
0.00000000000e+00,-3.50795740131e-02
1.03406000000e+07,0.00000000000e+00
1.44132749897e+08,4.53878075226e-01
*ELEMENT,TYPE=SPRINGA,ELSET=E352
352,352,353
*SPRING,ELSET=E352,NONLINEAR
0.00000000000e+00,-4.89141468210e-01
0.00000000000e+00,-3.51041023245e-02
1.03442000000e+07,0.00000000000e+00
1.44136349897e+08,4.54037365885e-01
*ELEMENT,TYPE=SPRINGA,ELSET=E353
353,353,354
*SPRING,ELSET=E353,NONLINEAR
0.00000000000e+00,-4.89329098695e-01
0.00000000000e+00,-3.51292273313e-02
1.03479000000e+07,0.00000000000e+00
1.44140049897e+08,4.54199871363e-01
*ELEMENT,TYPE=SPRINGA,ELSET=E354
354,354,355
*SPRING,ELSET=E354,NONLINEAR
0.00000000000e+00,-2.72440171385e-01
0.00000000000e+00,-1.95639052456e-02
1.03509000000e+07,0.00000000000e+00
1.44143049897e+08,2.52876266140e-01
*ELEMENT,TYPE=SPRINGA,ELSET=E355
355,355,356
*SPRING,ELSET=E355,NONLINEAR
0.00000000000e+00,-2.17090320723e-01
0.00000000000e+00,-1.55923126228e-02
1.03531000000e+07,0.00000000000e+00
1.44145249897e+08,2.01498008101e-01
*ELEMENT,TYPE=SPRINGA,ELSET=E356
356,356,357
*SPRING,ELSET=E356,NONLINEAR
0.00000000000e+00,-4.89738377665e-01
0.00000000000e+00,-3.51841535443e-02
1.03560000000e+07,0.00000000000e+00
1.44148149897e+08,4.54554224121e-01
*ELEMENT,TYPE=SPRINGA,ELSET=E357
357,357,358
*SPRING,ELSET=E357,NONLINEAR
0.00000000000e+00,-4.89937512273e-01
0.00000000000e+00,-3.52107627816e-02
1.03599000000e+07,0.00000000000e+00
1.44152049897e+08,4.54726749492e-01
*ELEMENT,TYPE=SPRINGA,ELSET=E358
358,358,359
*SPRING,ELSET=E358,NONLINEAR
0.00000000000e+00,-4.90140464036e-01
0.00000000000e+00,-3.52379713432e-02
1.03639000000e+07,0.00000000000e+00
1.44156049897e+08,4.54902492692e-01
*ELEMENT,TYPE=SPRINGA,ELSET=E359
359,359,360
*SPRING,ELSET=E359,NONLINEAR
0.00000000000e+00,-4.90347234448e-01
0.00000000000e+00,-3.52657799703e-02
1.03680000000e+07,0.00000000000e+00
1.44160149897e+08,4.55081454477e-01
*ELEMENT,TYPE=SPRINGA,ELSET=E360
360,360,361
*SPRING,ELSET=E360,NONLINEAR
0.00000000000e+00,-4.90557484783e-01
0.00000000000e+00,-3.52938491447e-02
1.03721000000e+07,0.00000000000e+00
1.44164249897e+08,4.55263635638e-01
*ELEMENT,TYPE=SPRINGA,ELSET=E361
361,361,362
*SPRING,ELSET=E361,NONLINEAR
0.00000000000e+00,-4.91311302902e-01
0.00000000000e+00,-3.53952045555e-02
1.03870000000e+07,0.00000000000e+00
1.44179149897e+08,4.55916098347e-01
*ELEMENT,TYPE=SPRINGA,ELSET=E362
362,362,363
*SPRING,ELSET=E362,NONLINEAR
0.00000000000e+00,-4.91538403825e-01
0.00000000000e+00,-3.54258012403e-02
1.03915000000e+07,0.00000000000e+00
1.44183649897e+08,4.56112602585e-01
*ELEMENT,TYPE=SPRINGA,ELSET=E363
363,363,364
*SPRING,ELSET=E363,NONLINEAR
0.00000000000e+00,-4.91768992367e-01
0.00000000000e+00,-3.54566616486e-02
1.03960000000e+07,0.00000000000e+00
1.44188149897e+08,4.56312330718e-01
*ELEMENT,TYPE=SPRINGA,ELSET=E364
364,364,365
*SPRING,ELSET=E364,NONLINEAR
0.00000000000e+00,-4.92003410996e-01
0.00000000000e+00,-3.54881273854e-02
1.04006000000e+07,0.00000000000e+00
1.44192749897e+08,4.56515283610e-01
*ELEMENT,TYPE=SPRINGA,ELSET=E365
365,365,366
*SPRING,ELSET=E365,NONLINEAR
0.00000000000e+00,-4.92241661474e-01
0.00000000000e+00,-3.55201993086e-02
1.04053000000e+07,0.00000000000e+00
1.44197449897e+08,4.56721462165e-01
*ELEMENT,TYPE=SPRINGA,ELSET=E366
366,366,367
*SPRING,ELSET=E366,NONLINEAR
0.00000000000e+00,-4.92483745582e-01
0.00000000000e+00,-3.55528782910e-02
1.04101000000e+07,0.00000000000e+00
1.44202249897e+08,4.56930867290e-01
*ELEMENT,TYPE=SPRINGA,ELSET=E367
367,367,368
*SPRING,ELSET=E367,NONLINEAR
0.00000000000e+00,-1.64727190059e-01
0.00000000000e+00,-1.18954187642e-02
1.04135000000e+07,0.00000000000e+00
1.44205649897e+08,1.52831771295e-01
*ELEMENT,TYPE=SPRINGA,ELSET=E368
368,368,369
*SPRING,ELSET=E368,NONLINEAR
0.00000000000e+00,-3.28021255370e-01
0.00000000000e+00,-2.36930455319e-02
1.04162000000e+07,0.00000000000e+00
1.44208349897e+08,3.04328209838e-01
*ELEMENT,TYPE=SPRINGA,ELSET=E369
369,369,370
*SPRING,ELSET=E369,NONLINEAR
0.00000000000e+00,-4.93007706277e-01
0.00000000000e+00,-3.56233733206e-02
1.04204000000e+07,0.00000000000e+00
1.44212549897e+08,4.57384332957e-01
*ELEMENT,TYPE=SPRINGA,ELSET=E370
370,370,371
*SPRING,ELSET=E370,NONLINEAR
0.00000000000e+00,-4.93261361260e-01
0.00000000000e+00,-3.56575673304e-02
1.04254000000e+07,0.00000000000e+00
1.44217549897e+08,4.57603793929e-01
*ELEMENT,TYPE=SPRINGA,ELSET=E371
371,371,372
*SPRING,ELSET=E371,NONLINEAR
0.00000000000e+00,-4.93518857140e-01
0.00000000000e+00,-3.56923717812e-02
1.04305000000e+07,0.00000000000e+00
1.44222649897e+08,4.57826485359e-01
*ELEMENT,TYPE=SPRINGA,ELSET=E372
372,372,373
*SPRING,ELSET=E372,NONLINEAR
0.00000000000e+00,-4.93780195832e-01
0.00000000000e+00,-3.57277876174e-02
1.04357000000e+07,0.00000000000e+00
1.44227849897e+08,4.58052408214e-01
*ELEMENT,TYPE=SPRINGA,ELSET=E373
373,373,374
*SPRING,ELSET=E373,NONLINEAR
0.00000000000e+00,-4.94045036776e-01
0.00000000000e+00,-3.57634732688e-02
1.04409000000e+07,0.00000000000e+00
1.44233049897e+08,4.58281563507e-01
*ELEMENT,TYPE=SPRINGA,ELSET=E374
374,374,375
*SPRING,ELSET=E374,NONLINEAR
0.00000000000e+00,-3.30026212085e-01
0.00000000000e+00,-2.38998499224e-02
1.04454000000e+07,0.00000000000e+00
1.44237549897e+08,3.06126362163e-01
*ELEMENT,TYPE=SPRINGA,ELSET=E375
375,375,376
*SPRING,ELSET=E375,NONLINEAR
0.00000000000e+00,-1.64297894648e-01
0.00000000000e+00,-1.19013004572e-02
1.04484000000e+07,0.00000000000e+00
1.44240549897e+08,1.52396594191e-01
*ELEMENT,TYPE=SPRINGA,ELSET=E376
376,376,377
*SPRING,ELSET=E376,NONLINEAR
0.00000000000e+00,-4.94617601044e-01
0.00000000000e+00,-3.58408637380e-02
1.04522000000e+07,0.00000000000e+00
1.44244349897e+08,4.58776737306e-01
*ELEMENT,TYPE=SPRINGA,ELSET=E377
377,377,378
*SPRING,ELSET=E377,NONLINEAR
0.00000000000e+00,-4.94894045582e-01
0.00000000000e+00,-3.58780793365e-02
1.04576000000e+07,0.00000000000e+00
1.44249749897e+08,4.59015966246e-01
*ELEMENT,TYPE=SPRINGA,ELSET=E378
378,378,379
*SPRING,ELSET=E378,NONLINEAR
0.00000000000e+00,-4.95174342517e-01
0.00000000000e+00,-3.59159106299e-02
1.04631000000e+07,0.00000000000e+00
1.44255249897e+08,4.59258431887e-01
*ELEMENT,TYPE=SPRINGA,ELSET=E379
379,379,380
*SPRING,ELSET=E379,NONLINEAR
0.00000000000e+00,-4.95458493933e-01
0.00000000000e+00,-3.59543586436e-02
1.04687000000e+07,0.00000000000e+00
1.44260849897e+08,4.59504135289e-01
*ELEMENT,TYPE=SPRINGA,ELSET=E380
380,380,381
*SPRING,ELSET=E380,NONLINEAR
0.00000000000e+00,-4.95746501979e-01
0.00000000000e+00,-3.59934244219e-02
1.04744000000e+07,0.00000000000e+00
1.44266549897e+08,4.59753077557e-01
*ELEMENT,TYPE=SPRINGA,ELSET=E381
381,381,382
*SPRING,ELSET=E381,NONLINEAR
0.00000000000e+00,-4.96038024980e-01
0.00000000000e+00,-3.60327652012e-02
1.04801000000e+07,0.00000000000e+00
1.44272249897e+08,4.60005259779e-01
*ELEMENT,TYPE=SPRINGA,ELSET=E382
382,382,383
*SPRING,ELSET=E382,NONLINEAR
0.00000000000e+00,-4.97065137627e-01
0.00000000000e+00,-3.61722263198e-02
1.05004000000e+07,0.00000000000e+00
1.44292549897e+08,4.60892911307e-01
*ELEMENT,TYPE=SPRINGA,ELSET=E383
383,383,384
*SPRING,ELSET=E383,NONLINEAR
0.00000000000e+00,-4.97373261172e-01
0.00000000000e+00,-3.62138249824e-02
1.05064000000e+07,0.00000000000e+00
1.44298549897e+08,4.61159436190e-01
*ELEMENT,TYPE=SPRINGA,ELSET=E384
384,384,385
*SPRING,ELSET=E384,NONLINEAR
0.00000000000e+00,-4.97685599690e-01
0.00000000000e+00,-3.62563923851e-02
1.05126000000e+07,0.00000000000e+00
1.44304749897e+08,4.61429207305e-01
*ELEMENT,TYPE=SPRINGA,ELSET=E385
385,385,386
*SPRING,ELSET=E385,NONLINEAR
0.00000000000e+00,-4.98001465950e-01
0.00000000000e+00,-3.62992401046e-02
1.05188000000e+07,0.00000000000e+00
1.44310949897e+08,4.61702225845e-01
*ELEMENT,TYPE=SPRINGA,ELSET=E386
386,386,387
*SPRING,ELSET=E386,NONLINEAR
0.00000000000e+00,-4.98321207001e-01
0.00000000000e+00,-3.63427139829e-02
1.05251000000e+07,0.00000000000e+00
1.44317249897e+08,4.61978493019e-01
*ELEMENT,TYPE=SPRINGA,ELSET=E387
387,387,388
*SPRING,ELSET=E387,NONLINEAR
0.00000000000e+00,-4.98644825290e-01
0.00000000000e+00,-3.63868151983e-02
1.05315000000e+07,0.00000000000e+00
1.44323649897e+08,4.62258010092e-01
*ELEMENT,TYPE=SPRINGA,ELSET=E388
388,388,389
*SPRING,ELSET=E388,NONLINEAR
0.00000000000e+00,-1.66806051890e-01
0.00000000000e+00,-1.21767867256e-02
1.05359000000e+07,0.00000000000e+00
1.44328049897e+08,1.54629265165e-01
*ELEMENT,TYPE=SPRINGA,ELSET=E389
389,389,390
*SPRING,ELSET=E389,NONLINEAR
0.00000000000e+00,-3.32190832715e-01
0.00000000000e+00,-2.42577153189e-02
1.05396000000e+07,0.00000000000e+00
1.44331749897e+08,3.07933117396e-01
*ELEMENT,TYPE=SPRINGA,ELSET=E390
390,390,391
*SPRING,ELSET=E390,NONLINEAR
0.00000000000e+00,-4.99341028121e-01
0.00000000000e+00,-3.64815552835e-02
1.05452000000e+07,0.00000000000e+00
1.44337349897e+08,4.62859472838e-01
*ELEMENT,TYPE=SPRINGA,ELSET=E391
391,391,392
*SPRING,ELSET=E391,NONLINEAR
0.00000000000e+00,-4.99676348138e-01
0.00000000000e+00,-3.65272316162e-02
1.05518000000e+07,0.00000000000e+00
1.44343949897e+08,4.63149116522e-01
*ELEMENT,TYPE=SPRINGA,ELSET=E392
392,392,393
*SPRING,ELSET=E392,NONLINEAR
0.00000000000e+00,-5.00015208732e-01
0.00000000000e+00,-3.65731934076e-02
1.05584000000e+07,0.00000000000e+00
1.44350549897e+08,4.63442015324e-01
*ELEMENT,TYPE=SPRINGA,ELSET=E393
393,393,394
*SPRING,ELSET=E393,NONLINEAR
0.00000000000e+00,-5.00358305024e-01
0.00000000000e+00,-3.66201344650e-02
1.05652000000e+07,0.00000000000e+00
1.44357349897e+08,4.63738170559e-01
*ELEMENT,TYPE=SPRINGA,ELSET=E394
394,394,395
*SPRING,ELSET=E394,NONLINEAR
0.00000000000e+00,-5.00704946603e-01
0.00000000000e+00,-3.66673630487e-02
1.05720000000e+07,0.00000000000e+00
1.44364149897e+08,4.64037583555e-01
*ELEMENT,TYPE=SPRINGA,ELSET=E395
395,395,396
*SPRING,ELSET=E395,NONLINEAR
0.00000000000e+00,-3.34519528827e-01
0.00000000000e+00,-2.45100290988e-02
1.05779000000e+07,0.00000000000e+00
1.44370049897e+08,3.10009499728e-01
*ELEMENT,TYPE=SPRINGA,ELSET=E396
396,396,397
*SPRING,ELSET=E396,NONLINEAR
0.00000000000e+00,-1.66549436409e-01
0.00000000000e+00,-1.22071386663e-02
1.05818000000e+07,0.00000000000e+00
1.44373949897e+08,1.54342297743e-01
*ELEMENT,TYPE=SPRINGA,ELSET=E397
397,397,398
*SPRING,ELSET=E397,NONLINEAR
0.00000000000e+00,-5.01450252984e-01
0.00000000000e+00,-3.67692594660e-02
1.05867000000e+07,0.00000000000e+00
1.44378849897e+08,4.64680993518e-01
*ELEMENT,TYPE=SPRINGA,ELSET=E398
398,398,399
*SPRING,ELSET=E398,NONLINEAR
0.00000000000e+00,-5.01808639777e-01
0.00000000000e+00,-3.68180828731e-02
1.05937000000e+07,0.00000000000e+00
1.44385849897e+08,4.64990556904e-01
*ELEMENT,TYPE=SPRINGA,ELSET=E399
399,399,400
*SPRING,ELSET=E399,NONLINEAR
0.00000000000e+00,-5.02170928702e-01
0.00000000000e+00,-3.68675450206e-02
1.06008000000e+07,0.00000000000e+00
1.44392949897e+08,4.65303383682e-01
*ELEMENT,TYPE=SPRINGA,ELSET=E400
400,400,401
*SPRING,ELSET=E400,NONLINEAR
0.00000000000e+00,-5.02537122520e-01
0.00000000000e+00,-3.69176472427e-02
1.06080000000e+07,0.00000000000e+00
1.44400149897e+08,4.65619475277e-01
*ELEMENT,TYPE=SPRINGA,ELSET=E401
401,401,402
*SPRING,ELSET=E401,NONLINEAR
0.00000000000e+00,-5.02907223972e-01
0.00000000000e+00,-3.69683908859e-02
1.06153000000e+07,0.00000000000e+00
1.44407449897e+08,4.65938833086e-01
*ELEMENT,TYPE=SPRINGA,ELSET=E402
402,402,403
*SPRING,ELSET=E402,NONLINEAR
0.00000000000e+00,-5.03281235867e-01
0.00000000000e+00,-3.70197773155e-02
1.06227000000e+07,0.00000000000e+00
1.44414849897e+08,4.66261458551e-01
*ELEMENT,TYPE=SPRINGA,ELSET=E403
403,403,404
*SPRING,ELSET=E403,NONLINEAR
0.00000000000e+00,-5.04578059036e-01
0.00000000000e+00,-3.71976950489e-02
1.06482000000e+07,0.00000000000e+00
1.44440349897e+08,4.67380363987e-01
*ELEMENT,TYPE=SPRINGA,ELSET=E404
404,404,405
*SPRING,ELSET=E404,NONLINEAR
0.00000000000e+00,-5.04968444720e-01
0.00000000000e+00,-3.72510842632e-02
1.06558000000e+07,0.00000000000e+00
1.44447949897e+08,4.67717360457e-01
*ELEMENT,TYPE=SPRINGA,ELSET=E405
405,405,406
*SPRING,ELSET=E405,NONLINEAR
0.00000000000e+00,-5.05363105162e-01
0.00000000000e+00,-3.73054725205e-02
1.06636000000e+07,0.00000000000e+00
1.44455749897e+08,4.68057632642e-01
*ELEMENT,TYPE=SPRINGA,ELSET=E406
406,406,407
*SPRING,ELSET=E406,NONLINEAR
0.00000000000e+00,-5.05761343919e-01
0.00000000000e+00,-3.73601618494e-02
1.06714000000e+07,0.00000000000e+00
1.44463549897e+08,4.68401182069e-01
*ELEMENT,TYPE=SPRINGA,ELSET=E407
407,407,408
*SPRING,ELSET=E407,NONLINEAR
0.00000000000e+00,-5.06163513613e-01
0.00000000000e+00,-3.74155033038e-02
1.06793000000e+07,0.00000000000e+00
1.44471449897e+08,4.68748010310e-01
*ELEMENT,TYPE=SPRINGA,ELSET=E408
408,408,409
*SPRING,ELSET=E408,NONLINEAR
0.00000000000e+00,-5.06569617293e-01
0.00000000000e+00,-3.74714983671e-02
1.06873000000e+07,0.00000000000e+00
1.44479449897e+08,4.69098118926e-01
*ELEMENT,TYPE=SPRINGA,ELSET=E409
409,409,410
*SPRING,ELSET=E409,NONLINEAR
0.00000000000e+00,-1.69475108358e-01
0.00000000000e+00,-1.25423383765e-02
1.06929000000e+07,0.00000000000e+00
1.44485049897e+08,1.56932769981e-01
*ELEMENT,TYPE=SPRINGA,ELSET=E410
410,410,411
*SPRING,ELSET=E410,NONLINEAR
0.00000000000e+00,-3.37535226671e-01
0.00000000000e+00,-2.49899082037e-02
1.06975000000e+07,0.00000000000e+00
1.44489649897e+08,3.12545318467e-01
*ELEMENT,TYPE=SPRINGA,ELSET=E411
411,411,412
*SPRING,ELSET=E411,NONLINEAR
0.00000000000e+00,-5.07439813909e-01
0.00000000000e+00,-3.75914770829e-02
1.07044000000e+07,0.00000000000e+00
1.44496549897e+08,4.69848336826e-01
*ELEMENT,TYPE=SPRINGA,ELSET=E412
412,412,413
*SPRING,ELSET=E412,NONLINEAR
0.00000000000e+00,-5.07857788949e-01
0.00000000000e+00,-3.76491247089e-02
1.07126000000e+07,0.00000000000e+00
1.44504749897e+08,4.70208664240e-01
*ELEMENT,TYPE=SPRINGA,ELSET=E413
413,413,414
*SPRING,ELSET=E413,NONLINEAR
0.00000000000e+00,-5.08279710299e-01
0.00000000000e+00,-3.77074316128e-02
1.07209000000e+07,0.00000000000e+00
1.44513049897e+08,4.70572278686e-01
*ELEMENT,TYPE=SPRINGA,ELSET=E414
414,414,415
*SPRING,ELSET=E414,NONLINEAR
0.00000000000e+00,-5.08705229170e-01
0.00000000000e+00,-3.77660473605e-02
1.07292000000e+07,0.00000000000e+00
1.44521349897e+08,4.70939181810e-01
*ELEMENT,TYPE=SPRINGA,ELSET=E415
415,415,416
*SPRING,ELSET=E415,NONLINEAR
0.00000000000e+00,-5.09135052539e-01
0.00000000000e+00,-3.78256772393e-02
1.07377000000e+07,0.00000000000e+00
1.44529849897e+08,4.71309375300e-01
*ELEMENT,TYPE=SPRINGA,ELSET=E416
416,416,417
*SPRING,ELSET=E416,NONLINEAR
0.00000000000e+00,-3.40195093584e-01
0.00000000000e+00,-2.52901402350e-02
1.07449000000e+07,0.00000000000e+00
1.44537049897e+08,3.14904953349e-01
*ELEMENT,TYPE=SPRINGA,ELSET=E417
417,417,418
*SPRING,ELSET=E417,NONLINEAR
0.00000000000e+00,-1.69389553844e-01
0.00000000000e+00,-1.25976448222e-02
1.07497000000e+07,0.00000000000e+00
1.44541849897e+08,1.56791909021e-01
*ELEMENT,TYPE=SPRINGA,ELSET=E418
418,418,419
*SPRING,ELSET=E418,NONLINEAR
0.00000000000e+00,-5.10054647585e-01
0.00000000000e+00,-3.79527940190e-02
1.07557000000e+07,0.00000000000e+00
1.44547849897e+08,4.72101853566e-01
*ELEMENT,TYPE=SPRINGA,ELSET=E419
419,419,420
*SPRING,ELSET=E419,NONLINEAR
0.00000000000e+00,-5.10496397797e-01
0.00000000000e+00,-3.80141019439e-02
1.07644000000e+07,0.00000000000e+00
1.44556549897e+08,4.72482295853e-01
*ELEMENT,TYPE=SPRINGA,ELSET=E420
420,420,421
*SPRING,ELSET=E420,NONLINEAR
0.00000000000e+00,-5.10941760394e-01
0.00000000000e+00,-3.80757248566e-02
1.07731000000e+07,0.00000000000e+00
1.44565249897e+08,4.72866035538e-01
*ELEMENT,TYPE=SPRINGA,ELSET=E421
421,421,422
*SPRING,ELSET=E421,NONLINEAR
0.00000000000e+00,-5.11391445387e-01
0.00000000000e+00,-3.81383709888e-02
1.07820000000e+07,0.00000000000e+00
1.44574149897e+08,4.73253074398e-01
*ELEMENT,TYPE=SPRINGA,ELSET=E422
422,422,423
*SPRING,ELSET=E422,NONLINEAR
0.00000000000e+00,-5.11844749035e-01
0.00000000000e+00,-3.82013348473e-02
1.07909000000e+07,0.00000000000e+00
1.44583049897e+08,4.73643414187e-01
*ELEMENT,TYPE=SPRINGA,ELSET=E423
423,423,424
*SPRING,ELSET=E423,NONLINEAR
0.00000000000e+00,-5.12301673906e-01
0.00000000000e+00,-3.82646172334e-02
1.07998000000e+07,0.00000000000e+00
1.44591949897e+08,4.74037056672e-01
*ELEMENT,TYPE=SPRINGA,ELSET=E424
424,424,425
*SPRING,ELSET=E424,NONLINEAR
0.00000000000e+00,-5.13864785259e-01
0.00000000000e+00,-3.84823024658e-02
1.08305000000e+07,0.00000000000e+00
1.44622649897e+08,4.75382482793e-01
*ELEMENT,TYPE=SPRINGA,ELSET=E425
425,425,426
*SPRING,ELSET=E425,NONLINEAR
0.00000000000e+00,-5.14338941769e-01
0.00000000000e+00,-3.85484069389e-02
1.08398000000e+07,0.00000000000e+00
1.44631949897e+08,4.75790534830e-01
*ELEMENT,TYPE=SPRINGA,ELSET=E426
426,426,427
*SPRING,ELSET=E426,NONLINEAR
0.00000000000e+00,-5.14816736201e-01
0.00000000000e+00,-3.86148367543e-02
1.08491000000e+07,0.00000000000e+00
1.44641249897e+08,4.76201899446e-01
*ELEMENT,TYPE=SPRINGA,ELSET=E427
427,427,428
*SPRING,ELSET=E427,NONLINEAR
0.00000000000e+00,-5.15298883768e-01
0.00000000000e+00,-3.86823052301e-02
1.08586000000e+07,0.00000000000e+00
1.44650749897e+08,4.76616578538e-01
*ELEMENT,TYPE=SPRINGA,ELSET=E428
428,428,429
*SPRING,ELSET=E428,NONLINEAR
0.00000000000e+00,-5.15784675955e-01
0.00000000000e+00,-3.87501019854e-02
1.08681000000e+07,0.00000000000e+00
1.44660249897e+08,4.77034573969e-01
*ELEMENT,TYPE=SPRINGA,ELSET=E429
429,429,430
*SPRING,ELSET=E429,NONLINEAR
0.00000000000e+00,-5.16274472518e-01
0.00000000000e+00,-3.88185847549e-02
1.08777000000e+07,0.00000000000e+00
1.44669849897e+08,4.77455887763e-01
*ELEMENT,TYPE=SPRINGA,ELSET=E430
430,430,431
*SPRING,ELSET=E430,NONLINEAR
0.00000000000e+00,-1.72739534413e-01
0.00000000000e+00,-1.29956526452e-02
1.08844000000e+07,0.00000000000e+00
1.44676549897e+08,1.59743881768e-01
*ELEMENT,TYPE=SPRINGA,ELSET=E431
431,431,432
*SPRING,ELSET=E431,NONLINEAR
0.00000000000e+00,-3.44065037732e-01
0.00000000000e+00,-2.58970194096e-02
1.08899000000e+07,0.00000000000e+00
1.44682049897e+08,3.18168018323e-01
*ELEMENT,TYPE=SPRINGA,ELSET=E432
432,432,433
*SPRING,ELSET=E432,NONLINEAR
0.00000000000e+00,-5.17320895238e-01
0.00000000000e+00,-3.89650490478e-02
1.08982000000e+07,0.00000000000e+00
1.44690349897e+08,4.78355846190e-01
*ELEMENT,TYPE=SPRINGA,ELSET=E433
433,433,434
*SPRING,ELSET=E433,NONLINEAR
0.00000000000e+00,-5.17823130518e-01
0.00000000000e+00,-3.90356374231e-02
1.09081000000e+07,0.00000000000e+00
1.44700249897e+08,4.78787493095e-01
*ELEMENT,TYPE=SPRINGA,ELSET=E434
434,434,435
*SPRING,ELSET=E434,NONLINEAR
0.00000000000e+00,-5.18329027537e-01
0.00000000000e+00,-3.91065611271e-02
1.09180000000e+07,0.00000000000e+00
1.44710149897e+08,4.79222466410e-01
*ELEMENT,TYPE=SPRINGA,ELSET=E435
435,435,436
*SPRING,ELSET=E435,NONLINEAR
0.00000000000e+00,-5.18838589211e-01
0.00000000000e+00,-3.91778210627e-02
1.09279000000e+07,0.00000000000e+00
1.44720049897e+08,4.79660768149e-01
*ELEMENT,TYPE=SPRINGA,ELSET=E436
436,436,437
*SPRING,ELSET=E436,NONLINEAR
0.00000000000e+00,-5.19352536156e-01
0.00000000000e+00,-3.92501358184e-02
1.09380000000e+07,0.00000000000e+00
1.44730149897e+08,4.80102400337e-01
*ELEMENT,TYPE=SPRINGA,ELSET=E437
437,437,438
*SPRING,ELSET=E437,NONLINEAR
0.00000000000e+00,-3.47064991789e-01
0.00000000000e+00,-2.62485453399e-02
1.09466000000e+07,0.00000000000e+00
1.44738749897e+08,3.20816446449e-01
*ELEMENT,TYPE=SPRINGA,ELSET=E438
438,438,439
*SPRING,ELSET=E438,NONLINEAR
0.00000000000e+00,-1.72824989893e-01
0.00000000000e+00,-1.30771653969e-02
1.09524000000e+07,0.00000000000e+00
1.44744549897e+08,1.59747824496e-01
*ELEMENT,TYPE=SPRINGA,ELSET=E439
439,439,440
*SPRING,ELSET=E439,NONLINEAR
0.00000000000e+00,-5.20449511670e-01
0.00000000000e+00,-3.94045002402e-02
1.09595000000e+07,0.00000000000e+00
1.44751649897e+08,4.81045011429e-01
*ELEMENT,TYPE=SPRINGA,ELSET=E440
440,440,441
*SPRING,ELSET=E440,NONLINEAR
0.00000000000e+00,-5.20975606919e-01
0.00000000000e+00,-3.94785937662e-02
1.09698000000e+07,0.00000000000e+00
1.44761949897e+08,4.81497013153e-01
*ELEMENT,TYPE=SPRINGA,ELSET=E441
441,441,442
*SPRING,ELSET=E441,NONLINEAR
0.00000000000e+00,-5.21505744986e-01
0.00000000000e+00,-3.95533911356e-02
1.09802000000e+07,0.00000000000e+00
1.44772349897e+08,4.81952353851e-01
*ELEMENT,TYPE=SPRINGA,ELSET=E442
442,442,443
*SPRING,ELSET=E442,NONLINEAR
0.00000000000e+00,-5.22039569381e-01
0.00000000000e+00,-3.96285337537e-02
1.09906000000e+07,0.00000000000e+00
1.44782749897e+08,4.82411035628e-01
*ELEMENT,TYPE=SPRINGA,ELSET=E443
443,443,444
*SPRING,ELSET=E443,NONLINEAR
0.00000000000e+00,-4.47063640595e-01
0.00000000000e+00,-3.39649994113e-02
1.10004000000e+07,0.00000000000e+00
1.44792549897e+08,4.13098641184e-01
*ELEMENT,TYPE=SPRINGA,ELSET=E444
444,444,445
*SPRING,ELSET=E444,NONLINEAR
0.00000000000e+00,-2.66955440266e-01
0.00000000000e+00,-1.95072041436e-02
1.05473000000e+07,0.00000000000e+00
1.44339449897e+08,2.47448236123e-01
*ELEMENT,TYPE=SPRINGA,ELSET=E445
445,445,446
*SPRING,ELSET=E445,NONLINEAR
0.00000000000e+00,-3.10644055658e-01
0.00000000000e+00,-2.27142194208e-02
1.05546000000e+07,0.00000000000e+00
1.44346749897e+08,2.87929836237e-01
*ELEMENT,TYPE=SPRINGA,ELSET=E446
446,446,447
*SPRING,ELSET=E446,NONLINEAR
0.00000000000e+00,-8.21139789451e-02
0.00000000000e+00,-6.00679086112e-03
1.05596000000e+07,0.00000000000e+00
1.44351749897e+08,7.61071880840e-02
*ELEMENT,TYPE=SPRINGA,ELSET=E447
447,447,448
*SPRING,ELSET=E447,NONLINEAR
0.00000000000e+00,-3.62755442287e-02
0.00000000000e+00,-2.32544899659e-03
9.16424000000e+06,0.00000000000e+00
1.42956389897e+08,3.39500952321e-02
*ELEMENT,TYPE=SPRINGA,ELSET=E448
448,448,449
*SPRING,ELSET=E448,NONLINEAR
0.00000000000e+00,-8.01372072347e-01
0.00000000000e+00,-5.13720723192e-02
9.16424000000e+06,0.00000000000e+00
1.42956389897e+08,7.50000000028e-01
*ELEMENT,TYPE=SPRINGA,ELSET=E449
449,449,450
*SPRING,ELSET=E449,NONLINEAR
0.00000000000e+00,-3.93207658372e-02
0.00000000000e+00,-2.52066336717e-03
9.16424000000e+06,0.00000000000e+00
1.42956389897e+08,3.68001024700e-02
*ELEMENT,TYPE=SPRINGA,ELSET=E450
450,450,451
*SPRING,ELSET=E450,NONLINEAR
0.00000000000e+00,-1.55709263827e-02
0.00000000000e+00,-1.17574038969e-03
1.09276000000e+07,0.00000000000e+00
1.44719749897e+08,1.43951859930e-02
*ELEMENT,TYPE=SPRINGA,ELSET=E451
451,451,452
*SPRING,ELSET=E451,NONLINEAR
0.00000000000e+00,-3.53754777665e-01
0.00000000000e+00,-2.67032013276e-02
1.09239000000e+07,0.00000000000e+00
1.44716049897e+08,3.27051576337e-01
*ELEMENT,TYPE=SPRINGA,ELSET=E452
452,452,453
*SPRING,ELSET=E452,NONLINEAR
0.00000000000e+00,-3.53505326491e-01
0.00000000000e+00,-2.66681104884e-02
1.09167000000e+07,0.00000000000e+00
1.44708849897e+08,3.26837216002e-01
*ELEMENT,TYPE=SPRINGA,ELSET=E453
453,453,454
*SPRING,ELSET=E453,NONLINEAR
0.00000000000e+00,-2.05554395685e-01
0.00000000000e+00,-1.54644015632e-02
1.08844000000e+07,0.00000000000e+00
1.44676549897e+08,1.90089994122e-01
*ELEMENT,TYPE=SPRINGA,ELSET=E454
454,454,455
*SPRING,ELSET=E454,NONLINEAR
0.00000000000e+00,-1.76115303719e-01
0.00000000000e+00,-1.32447799585e-02
1.08801000000e+07,0.00000000000e+00
1.44672249897e+08,1.62870523760e-01
*ELEMENT,TYPE=SPRINGA,ELSET=E455
455,455,456
*SPRING,ELSET=E455,NONLINEAR
0.00000000000e+00,-3.52029878508e-01
0.00000000000e+00,-2.64614118241e-02
1.08743000000e+07,0.00000000000e+00
1.44666449897e+08,3.25568466684e-01
*ELEMENT,TYPE=SPRINGA,ELSET=E456
456,456,457
*SPRING,ELSET=E456,NONLINEAR
0.00000000000e+00,-3.51753921995e-01
0.00000000000e+00,-2.64229029027e-02
1.08664000000e+07,0.00000000000e+00
1.44658549897e+08,3.25331019093e-01
*ELEMENT,TYPE=SPRINGA,ELSET=E457
457,457,458
*SPRING,ELSET=E457,NONLINEAR
0.00000000000e+00,-1.75778038341e-01
0.00000000000e+00,-1.31976144429e-02
1.08607000000e+07,0.00000000000e+00
1.44652849897e+08,1.62580423898e-01
*ELEMENT,TYPE=SPRINGA,ELSET=E458
458,458,459
*SPRING,ELSET=E458,NONLINEAR
0.00000000000e+00,-1.75709914051e-01
0.00000000000e+00,-1.31881178275e-02
1.08568000000e+07,0.00000000000e+00
1.44648949897e+08,1.62521796224e-01
*ELEMENT,TYPE=SPRINGA,ELSET=E459
459,459,460
*SPRING,ELSET=E459,NONLINEAR
0.00000000000e+00,-3.51221990643e-01
0.00000000000e+00,-2.63485848485e-02
1.08511000000e+07,0.00000000000e+00
1.44643249897e+08,3.24873405795e-01
*ELEMENT,TYPE=SPRINGA,ELSET=E460
460,460,461
*SPRING,ELSET=E460,NONLINEAR
0.00000000000e+00,-3.50949951861e-01
0.00000000000e+00,-2.63106701416e-02
1.08433000000e+07,0.00000000000e+00
1.44635449897e+08,3.24639281720e-01
*ELEMENT,TYPE=SPRINGA,ELSET=E461
461,461,462
*SPRING,ELSET=E461,NONLINEAR
0.00000000000e+00,-1.75356466951e-01
0.00000000000e+00,-1.31388238462e-02
1.08365000000e+07,0.00000000000e+00
1.44628649897e+08,1.62217643104e-01
*ELEMENT,TYPE=SPRINGA,ELSET=E462
462,462,463
*SPRING,ELSET=E462,NONLINEAR
0.00000000000e+00,-1.75289304550e-01
0.00000000000e+00,-1.31294188707e-02
1.08326000000e+07,0.00000000000e+00
1.44624749897e+08,1.62159885680e-01
*ELEMENT,TYPE=SPRINGA,ELSET=E463
463,463,464
*SPRING,ELSET=E463,NONLINEAR
0.00000000000e+00,-3.50383796903e-01
0.00000000000e+00,-2.62316945700e-02
1.08270000000e+07,0.00000000000e+00
1.44619149897e+08,3.24152102333e-01
*ELEMENT,TYPE=SPRINGA,ELSET=E464
464,464,465
*SPRING,ELSET=E464,NONLINEAR
0.00000000000e+00,-3.50115862548e-01
0.00000000000e+00,-2.61943888562e-02
1.08193000000e+07,0.00000000000e+00
1.44611449897e+08,3.23921473692e-01
*ELEMENT,TYPE=SPRINGA,ELSET=E465
465,465,466
*SPRING,ELSET=E465,NONLINEAR
0.00000000000e+00,-1.74962002247e-01
0.00000000000e+00,-1.30838606658e-02
1.08138000000e+07,0.00000000000e+00
1.44605949897e+08,1.61878141581e-01
*ELEMENT,TYPE=SPRINGA,ELSET=E466
466,466,467
*SPRING,ELSET=E466,NONLINEAR
0.00000000000e+00,-1.74895872611e-01
0.00000000000e+00,-1.30746630273e-02
1.08100000000e+07,0.00000000000e+00
1.44602149897e+08,1.61821209583e-01
*ELEMENT,TYPE=SPRINGA,ELSET=E467
467,467,468
*SPRING,ELSET=E467,NONLINEAR
0.00000000000e+00,-3.49599812118e-01
0.00000000000e+00,-2.61226741609e-02
1.08045000000e+07,0.00000000000e+00
1.44596649897e+08,3.23477137957e-01
*ELEMENT,TYPE=SPRINGA,ELSET=E468
468,468,469
*SPRING,ELSET=E468,NONLINEAR
0.00000000000e+00,-3.49335780048e-01
0.00000000000e+00,-2.60859552386e-02
1.07969000000e+07,0.00000000000e+00
1.44589049897e+08,3.23249824810e-01
*ELEMENT,TYPE=SPRINGA,ELSET=E469
469,469,470
*SPRING,ELSET=E469,NONLINEAR
0.00000000000e+00,-1.74573296626e-01
0.00000000000e+00,-1.30297691165e-02
1.07914000000e+07,0.00000000000e+00
1.44583549897e+08,1.61543527509e-01
*ELEMENT,TYPE=SPRINGA,ELSET=E470
470,470,471
*SPRING,ELSET=E470,NONLINEAR
0.00000000000e+00,-1.74508197670e-01
0.00000000000e+00,-1.30207776903e-02
1.07877000000e+07,0.00000000000e+00
1.44579849897e+08,1.61487419980e-01
*ELEMENT,TYPE=SPRINGA,ELSET=E471
471,471,472
*SPRING,ELSET=E471,NONLINEAR
0.00000000000e+00,-3.48827335541e-01
0.00000000000e+00,-2.60153919498e-02
1.07823000000e+07,0.00000000000e+00
1.44574449897e+08,3.22811943591e-01
*ELEMENT,TYPE=SPRINGA,ELSET=E472
472,472,473
*SPRING,ELSET=E472,NONLINEAR
0.00000000000e+00,-3.48567198525e-01
0.00000000000e+00,-2.59792563469e-02
1.07748000000e+07,0.00000000000e+00
1.44566949897e+08,3.22587942178e-01
*ELEMENT,TYPE=SPRINGA,ELSET=E473
473,473,474
*SPRING,ELSET=E473,NONLINEAR
0.00000000000e+00,-1.74190459281e-01
0.00000000000e+00,-1.29766644970e-02
1.07694000000e+07,0.00000000000e+00
1.44561549897e+08,1.61213794784e-01
*ELEMENT,TYPE=SPRINGA,ELSET=E474
474,474,475
*SPRING,ELSET=E474,NONLINEAR
0.00000000000e+00,-1.74126268385e-01
0.00000000000e+00,-1.29677576755e-02
1.07657000000e+07,0.00000000000e+00
1.44557849897e+08,1.61158510709e-01
*ELEMENT,TYPE=SPRINGA,ELSET=E475
475,475,476
*SPRING,ELSET=E475,NONLINEAR
0.00000000000e+00,-3.48025993283e-01
0.00000000000e+00,-2.59041597993e-02
1.07592000000e+07,0.00000000000e+00
1.44551349897e+08,3.22121833484e-01
*ELEMENT,TYPE=SPRINGA,ELSET=E476
476,476,477
*SPRING,ELSET=E476,NONLINEAR
0.00000000000e+00,-3.47770179032e-01
0.00000000000e+00,-2.58688627488e-02
1.07519000000e+07,0.00000000000e+00
1.44544049897e+08,3.21901316284e-01
*ELEMENT,TYPE=SPRINGA,ELSET=E477
477,477,478
*SPRING,ELSET=E477,NONLINEAR
0.00000000000e+00,-1.73793470554e-01
0.00000000000e+00,-1.29217176154e-02
1.07466000000e+07,0.00000000000e+00
1.44538749897e+08,1.60871752938e-01
*ELEMENT,TYPE=SPRINGA,ELSET=E478
478,478,479
*SPRING,ELSET=E478,NONLINEAR
0.00000000000e+00,-1.73729562177e-01
0.00000000000e+00,-1.29128492697e-02
1.07429000000e+07,0.00000000000e+00
1.44535049897e+08,1.60816712907e-01
*ELEMENT,TYPE=SPRINGA,ELSET=E479
479,479,480
*SPRING,ELSET=E479,NONLINEAR
0.00000000000e+00,-3.47277279311e-01
0.00000000000e+00,-2.58006165835e-02
1.07377000000e+07,0.00000000000e+00
1.44529849897e+08,3.21476662728e-01
*ELEMENT,TYPE=SPRINGA,ELSET=E480
480,480,481
*SPRING,ELSET=E480,NONLINEAR
0.00000000000e+00,-3.47025104787e-01
0.00000000000e+00,-2.57656551663e-02
1.07304000000e+07,0.00000000000e+00
1.44522549897e+08,3.21259449621e-01
*ELEMENT,TYPE=SPRINGA,ELSET=E481
481,481,482
*SPRING,ELSET=E481,NONLINEAR
0.00000000000e+00,-1.73421693939e-01
0.00000000000e+00,-1.28703048676e-02
1.07252000000e+07,0.00000000000e+00
1.44517349897e+08,1.60551389071e-01
*ELEMENT,TYPE=SPRINGA,ELSET=E482
482,482,483
*SPRING,ELSET=E482,NONLINEAR
0.00000000000e+00,-1.73359480115e-01
0.00000000000e+00,-1.28616896546e-02
1.07216000000e+07,0.00000000000e+00
1.44513749897e+08,1.60497790460e-01
*ELEMENT,TYPE=SPRINGA,ELSET=E483
483,483,484
*SPRING,ELSET=E483,NONLINEAR
0.00000000000e+00,-3.46539765959e-01
0.00000000000e+00,-2.56985399865e-02
1.07164000000e+07,0.00000000000e+00
1.44508549897e+08,3.20841225973e-01
*ELEMENT,TYPE=SPRINGA,ELSET=E484
484,484,485
*SPRING,ELSET=E484,NONLINEAR
0.00000000000e+00,-3.46291704686e-01
0.00000000000e+00,-2.56643912960e-02
1.07093000000e+07,0.00000000000e+00
1.44501449897e+08,3.20627313390e-01
*ELEMENT,TYPE=SPRINGA,ELSET=E485
485,485,486
*SPRING,ELSET=E485,NONLINEAR
0.00000000000e+00,-1.73056421154e-01
0.00000000000e+00,-1.28199123690e-02
1.07042000000e+07,0.00000000000e+00
1.44496349897e+08,1.60236508785e-01
*ELEMENT,TYPE=SPRINGA,ELSET=E486
486,486,487
*SPRING,ELSET=E486,NONLINEAR
0.00000000000e+00,-1.72995110588e-01
0.00000000000e+00,-1.28113796829e-02
1.07006000000e+07,0.00000000000e+00
1.44492749897e+08,1.60183730905e-01
*ELEMENT,TYPE=SPRINGA,ELSET=E487
487,487,488
*SPRING,ELSET=E487,NONLINEAR
0.00000000000e+00,-3.45813911726e-01
0.00000000000e+00,-2.55984002474e-02
1.06955000000e+07,0.00000000000e+00
1.44487649897e+08,3.20215511479e-01
*ELEMENT,TYPE=SPRINGA,ELSET=E488
488,488,489
*SPRING,ELSET=E488,NONLINEAR
0.00000000000e+00,-3.44759918967e-01
0.00000000000e+00,-2.54534192299e-02
1.06652000000e+07,0.00000000000e+00
1.44457349897e+08,3.19306499737e-01
*ELEMENT,TYPE=SPRINGA,ELSET=E489
489,489,490
*SPRING,ELSET=E489,NONLINEAR
0.00000000000e+00,-1.72293439889e-01
0.00000000000e+00,-1.27147985423e-02
1.06602000000e+07,0.00000000000e+00
1.44452349897e+08,1.59578641347e-01
*ELEMENT,TYPE=SPRINGA,ELSET=E490
490,490,491
*SPRING,ELSET=E490,NONLINEAR
0.00000000000e+00,-1.72234296911e-01
0.00000000000e+00,-1.27066791183e-02
1.06568000000e+07,0.00000000000e+00
1.44448949897e+08,1.59527617793e-01
*ELEMENT,TYPE=SPRINGA,ELSET=E491
491,491,492
*SPRING,ELSET=E491,NONLINEAR
0.00000000000e+00,-3.44298406179e-01
0.00000000000e+00,-2.53899845331e-02
1.06519000000e+07,0.00000000000e+00
1.44444049897e+08,3.18908421646e-01
*ELEMENT,TYPE=SPRINGA,ELSET=E492
492,492,493
*SPRING,ELSET=E492,NONLINEAR
0.00000000000e+00,-3.44062432705e-01
0.00000000000e+00,-2.53575791910e-02
1.06451000000e+07,0.00000000000e+00
1.44437249897e+08,3.18704853514e-01
*ELEMENT,TYPE=SPRINGA,ELSET=E493
493,493,494
*SPRING,ELSET=E493,NONLINEAR
0.00000000000e+00,-1.71946116735e-01
0.00000000000e+00,-1.26671142067e-02
1.06402000000e+07,0.00000000000e+00
1.44432349897e+08,1.59279002529e-01
*ELEMENT,TYPE=SPRINGA,ELSET=E494
494,494,495
*SPRING,ELSET=E494,NONLINEAR
0.00000000000e+00,-1.71887991043e-01
0.00000000000e+00,-1.26591940696e-02
1.06369000000e+07,0.00000000000e+00
1.44429049897e+08,1.59228796974e-01
*ELEMENT,TYPE=SPRINGA,ELSET=E495
495,495,496
*SPRING,ELSET=E495,NONLINEAR
0.00000000000e+00,-3.43608421598e-01
0.00000000000e+00,-2.52952483434e-02
1.06320000000e+07,0.00000000000e+00
1.44424149897e+08,3.18313173255e-01
*ELEMENT,TYPE=SPRINGA,ELSET=E496
496,496,497
*SPRING,ELSET=E496,NONLINEAR
0.00000000000e+00,-3.43376293608e-01
0.00000000000e+00,-2.52634022764e-02
1.06253000000e+07,0.00000000000e+00
1.44417449897e+08,3.18112891332e-01
*ELEMENT,TYPE=SPRINGA,ELSET=E497
497,497,498
*SPRING,ELSET=E497,NONLINEAR
0.00000000000e+00,-1.71604464945e-01
0.00000000000e+00,-1.26202602144e-02
1.06205000000e+07,0.00000000000e+00
1.44412649897e+08,1.58984204731e-01
*ELEMENT,TYPE=SPRINGA,ELSET=E498
498,498,499
*SPRING,ELSET=E498,NONLINEAR
0.00000000000e+00,-1.71547235913e-01
0.00000000000e+00,-1.26124195866e-02
1.06172000000e+07,0.00000000000e+00
1.44409349897e+08,1.58934816326e-01
*ELEMENT,TYPE=SPRINGA,ELSET=E499
499,499,500
*SPRING,ELSET=E499,NONLINEAR
0.00000000000e+00,-3.42929770768e-01
0.00000000000e+00,-2.52021691969e-02
1.06124000000e+07,0.00000000000e+00
1.44404549897e+08,3.17727601571e-01
*ELEMENT,TYPE=SPRINGA,ELSET=E500
500,500,501
*SPRING,ELSET=E500,NONLINEAR
0.00000000000e+00,-3.42701719306e-01
0.00000000000e+00,-2.51711166971e-02
1.06059000000e+07,0.00000000000e+00
1.44398049897e+08,3.17530602609e-01
*ELEMENT,TYPE=SPRINGA,ELSET=E501
501,501,502
*SPRING,ELSET=E501,NONLINEAR
0.00000000000e+00,-1.71250526386e-01
0.00000000000e+00,-1.25718153574e-02
1.06001000000e+07,0.00000000000e+00
1.44392249897e+08,1.58678711029e-01
*ELEMENT,TYPE=SPRINGA,ELSET=E502
502,502,503
*SPRING,ELSET=E502,NONLINEAR
0.00000000000e+00,-1.71194359561e-01
0.00000000000e+00,-1.25641765087e-02
1.05969000000e+07,0.00000000000e+00
1.44389049897e+08,1.58630183052e-01
*ELEMENT,TYPE=SPRINGA,ELSET=E503
503,503,504
*SPRING,ELSET=E503,NONLINEAR
0.00000000000e+00,-3.42227012379e-01
0.00000000000e+00,-2.51061625661e-02
1.05922000000e+07,0.00000000000e+00
1.44384349897e+08,3.17120849813e-01
*ELEMENT,TYPE=SPRINGA,ELSET=E504
504,504,505
*SPRING,ELSET=E504,NONLINEAR
0.00000000000e+00,-3.42002750484e-01
0.00000000000e+00,-2.50754427939e-02
1.05857000000e+07,0.00000000000e+00
1.44377849897e+08,3.16927307690e-01
*ELEMENT,TYPE=SPRINGA,ELSET=E505
505,505,506
*SPRING,ELSET=E505,NONLINEAR
0.00000000000e+00,-1.70920592386e-01
0.00000000000e+00,-1.25267518836e-02
1.05811000000e+07,0.00000000000e+00
1.44373249897e+08,1.58393840502e-01
*ELEMENT,TYPE=SPRINGA,ELSET=E506
506,506,507
*SPRING,ELSET=E506,NONLINEAR
0.00000000000e+00,-1.70865319213e-01
0.00000000000e+00,-1.25191912131e-02
1.05779000000e+07,0.00000000000e+00
1.44370049897e+08,1.58346127999e-01
*ELEMENT,TYPE=SPRINGA,ELSET=E507
507,507,508
*SPRING,ELSET=E507,NONLINEAR
0.00000000000e+00,-3.41571778447e-01
0.00000000000e+00,-2.50166566005e-02
1.05733000000e+07,0.00000000000e+00
1.44365449897e+08,3.16555121846e-01
*ELEMENT,TYPE=SPRINGA,ELSET=E508
508,508,509
*SPRING,ELSET=E508,NONLINEAR
0.00000000000e+00,-3.41351342996e-01
0.00000000000e+00,-2.49864868803e-02
1.05669000000e+07,0.00000000000e+00
1.44359049897e+08,3.16364856115e-01
*ELEMENT,TYPE=SPRINGA,ELSET=E509
509,509,510
*SPRING,ELSET=E509,NONLINEAR
0.00000000000e+00,-1.70596300044e-01
0.00000000000e+00,-1.24825047833e-02
1.05624000000e+07,0.00000000000e+00
1.44354549897e+08,1.58113795261e-01
*ELEMENT,TYPE=SPRINGA,ELSET=E510
510,510,511
*SPRING,ELSET=E510,NONLINEAR
0.00000000000e+00,-1.70541919225e-01
0.00000000000e+00,-1.24750217768e-02
1.05592000000e+07,0.00000000000e+00
1.44351349897e+08,1.58066897448e-01
*ELEMENT,TYPE=SPRINGA,ELSET=E511
511,511,512
*SPRING,ELSET=E511,NONLINEAR
0.00000000000e+00,-3.40927819108e-01
0.00000000000e+00,-2.49287799139e-02
1.05547000000e+07,0.00000000000e+00
1.44346849897e+08,3.15999039194e-01
*ELEMENT,TYPE=SPRINGA,ELSET=E512
512,512,513
*SPRING,ELSET=E512,NONLINEAR
0.00000000000e+00,-3.40711440187e-01
0.00000000000e+00,-2.48993934098e-02
1.05485000000e+07,0.00000000000e+00
1.44340649897e+08,3.15812046777e-01
*ELEMENT,TYPE=SPRINGA,ELSET=E513
513,513,514
*SPRING,ELSET=E513,NONLINEAR
0.00000000000e+00,-1.70277640102e-01
0.00000000000e+00,-1.24390697584e-02
1.05440000000e+07,0.00000000000e+00
1.44336149897e+08,1.57838570343e-01
*ELEMENT,TYPE=SPRINGA,ELSET=E514
514,514,515
*SPRING,ELSET=E514,NONLINEAR
0.00000000000e+00,-1.70224268290e-01
0.00000000000e+00,-1.24317818469e-02
1.05409000000e+07,0.00000000000e+00
1.44333049897e+08,1.57792486443e-01
*ELEMENT,TYPE=SPRINGA,ELSET=E515
515,515,516
*SPRING,ELSET=E515,NONLINEAR
0.00000000000e+00,-3.40261266853e-01
0.00000000000e+00,-2.48380859765e-02
1.05355000000e+07,0.00000000000e+00
1.44327649897e+08,3.15423180877e-01
*ELEMENT,TYPE=SPRINGA,ELSET=E516
516,516,517
*SPRING,ELSET=E516,NONLINEAR
0.00000000000e+00,-3.40048660631e-01
0.00000000000e+00,-2.48090243338e-02
1.05293000000e+07,0.00000000000e+00
1.44321449897e+08,3.15239636297e-01
*ELEMENT,TYPE=SPRINGA,ELSET=E517
517,517,518
*SPRING,ELSET=E517,NONLINEAR
0.00000000000e+00,-1.69947728216e-01
0.00000000000e+00,-1.23941200709e-02
1.05249000000e+07,0.00000000000e+00
1.44317049897e+08,1.57553608145e-01
*ELEMENT,TYPE=SPRINGA,ELSET=E518
518,518,519
*SPRING,ELSET=E518,NONLINEAR
0.00000000000e+00,-1.69895412033e-01
0.00000000000e+00,-1.23870304876e-02
1.05219000000e+07,0.00000000000e+00
1.44314049897e+08,1.57508381545e-01
*ELEMENT,TYPE=SPRINGA,ELSET=E519
519,519,520
*SPRING,ELSET=E519,NONLINEAR
0.00000000000e+00,-3.39640608466e-01
0.00000000000e+00,-2.47537263848e-02
1.05176000000e+07,0.00000000000e+00
1.44309749897e+08,3.14886882082e-01
*ELEMENT,TYPE=SPRINGA,ELSET=E520
520,520,521
*SPRING,ELSET=E520,NONLINEAR
0.00000000000e+00,-3.39431810690e-01
0.00000000000e+00,-2.47252060541e-02
1.05115000000e+07,0.00000000000e+00
1.44303649897e+08,3.14706604635e-01
*ELEMENT,TYPE=SPRINGA,ELSET=E521
521,521,522
*SPRING,ELSET=E521,NONLINEAR
0.00000000000e+00,-1.69640709186e-01
0.00000000000e+00,-1.23524385996e-02
1.05072000000e+07,0.00000000000e+00
1.44299349897e+08,1.57288270586e-01
*ELEMENT,TYPE=SPRINGA,ELSET=E522
522,522,523
*SPRING,ELSET=E522,NONLINEAR
0.00000000000e+00,-1.69589398608e-01
0.00000000000e+00,-1.23455422574e-02
1.05043000000e+07,0.00000000000e+00
1.44296449897e+08,1.57243856351e-01
*ELEMENT,TYPE=SPRINGA,ELSET=E523
523,523,524
*SPRING,ELSET=E523,NONLINEAR
0.00000000000e+00,-3.39031168807e-01
0.00000000000e+00,-2.46709697999e-02
1.05000000000e+07,0.00000000000e+00
1.44292149897e+08,3.14360199008e-01
*ELEMENT,TYPE=SPRINGA,ELSET=E524
524,524,525
*SPRING,ELSET=E524,NONLINEAR
0.00000000000e+00,-3.38826408671e-01
0.00000000000e+00,-2.46432228835e-02
1.04941000000e+07,0.00000000000e+00
1.44286249897e+08,3.14183185788e-01
*ELEMENT,TYPE=SPRINGA,ELSET=E525
525,525,526
*SPRING,ELSET=E525,NONLINEAR
0.00000000000e+00,-1.69339295014e-01
0.00000000000e+00,-1.23115562141e-02
1.04898000000e+07,0.00000000000e+00
1.44281949897e+08,1.57027738800e-01
*ELEMENT,TYPE=SPRINGA,ELSET=E526
526,526,527
*SPRING,ELSET=E526,NONLINEAR
0.00000000000e+00,-1.69288871095e-01
0.00000000000e+00,-1.23047349116e-02
1.04869000000e+07,0.00000000000e+00
1.44279049897e+08,1.56984136183e-01
*ELEMENT,TYPE=SPRINGA,ELSET=E527
527,527,528
*SPRING,ELSET=E527,NONLINEAR
0.00000000000e+00,-3.38432930519e-01
0.00000000000e+00,-2.45898081563e-02
1.04827000000e+07,0.00000000000e+00
1.44274849897e+08,3.13843122363e-01
*ELEMENT,TYPE=SPRINGA,ELSET=E528
528,528,529
*SPRING,ELSET=E528,NONLINEAR
0.00000000000e+00,-3.37555817977e-01
0.00000000000e+00,-2.44711766064e-02
1.04574000000e+07,0.00000000000e+00
1.44249549897e+08,3.13084641371e-01
*ELEMENT,TYPE=SPRINGA,ELSET=E529
529,529,530
*SPRING,ELSET=E529,NONLINEAR
0.00000000000e+00,-1.68707010831e-01
0.00000000000e+00,-1.22260008726e-02
1.04533000000e+07,0.00000000000e+00
1.44245449897e+08,1.56481009958e-01
*ELEMENT,TYPE=SPRINGA,ELSET=E530
530,530,531
*SPRING,ELSET=E530,NONLINEAR
0.00000000000e+00,-1.68658616318e-01
0.00000000000e+00,-1.22194570821e-02
1.04505000000e+07,0.00000000000e+00
1.44242649897e+08,1.56439159236e-01
*ELEMENT,TYPE=SPRINGA,ELSET=E531
531,531,532
*SPRING,ELSET=E531,NONLINEAR
0.00000000000e+00,-3.37178451276e-01
0.00000000000e+00,-2.44201862245e-02
1.04465000000e+07,0.00000000000e+00
1.44238649897e+08,3.12758265051e-01
*ELEMENT,TYPE=SPRINGA,ELSET=E532
532,532,533
*SPRING,ELSET=E532,NONLINEAR
0.00000000000e+00,-3.36985638628e-01
0.00000000000e+00,-2.43940855225e-02
1.04409000000e+07,0.00000000000e+00
1.44233049897e+08,3.12591553106e-01
*ELEMENT,TYPE=SPRINGA,ELSET=E533
533,533,534
*SPRING,ELSET=E533,NONLINEAR
0.00000000000e+00,-1.68423320629e-01
0.00000000000e+00,-1.21876789477e-02
1.04369000000e+07,0.00000000000e+00
1.44229049897e+08,1.56235641682e-01
*ELEMENT,TYPE=SPRINGA,ELSET=E534
534,534,535
*SPRING,ELSET=E534,NONLINEAR
0.00000000000e+00,-1.68375925659e-01
0.00000000000e+00,-1.21813252902e-02
1.04342000000e+07,0.00000000000e+00
1.44226349897e+08,1.56194600369e-01
*ELEMENT,TYPE=SPRINGA,ELSET=E535
535,535,536
*SPRING,ELSET=E535,NONLINEAR
0.00000000000e+00,-3.36615634853e-01
0.00000000000e+00,-2.43441352686e-02
1.04302000000e+07,0.00000000000e+00
1.44222349897e+08,3.12271499585e-01
*ELEMENT,TYPE=SPRINGA,ELSET=E536
536,536,537
*SPRING,ELSET=E536,NONLINEAR
0.00000000000e+00,-3.36426602407e-01
0.00000000000e+00,-2.43185619754e-02
1.04247000000e+07,0.00000000000e+00
1.44216849897e+08,3.12108040432e-01
*ELEMENT,TYPE=SPRINGA,ELSET=E537
537,537,538
*SPRING,ELSET=E537,NONLINEAR
0.00000000000e+00,-1.68145200541e-01
0.00000000000e+00,-1.21501398248e-02
1.04208000000e+07,0.00000000000e+00
1.44212949897e+08,1.55995060716e-01
*ELEMENT,TYPE=SPRINGA,ELSET=E538
538,538,539
*SPRING,ELSET=E538,NONLINEAR
0.00000000000e+00,-1.68098687100e-01
0.00000000000e+00,-1.21438589374e-02
1.04181000000e+07,0.00000000000e+00
1.44210249897e+08,1.55954828162e-01
*ELEMENT,TYPE=SPRINGA,ELSET=E539
539,539,540
*SPRING,ELSET=E539,NONLINEAR
0.00000000000e+00,-3.36064183868e-01
0.00000000000e+00,-2.42698799711e-02
1.04143000000e+07,0.00000000000e+00
1.44206449897e+08,3.11794303897e-01
*ELEMENT,TYPE=SPRINGA,ELSET=E540
540,540,541
*SPRING,ELSET=E540,NONLINEAR
0.00000000000e+00,-3.35878926418e-01
0.00000000000e+00,-2.42448315022e-02
1.04089000000e+07,0.00000000000e+00
1.44201049897e+08,3.11634094916e-01
*ELEMENT,TYPE=SPRINGA,ELSET=E541
541,541,542
*SPRING,ELSET=E541,NONLINEAR
0.00000000000e+00,-1.67857897905e-01
0.00000000000e+00,-1.21114517991e-02
1.04042000000e+07,0.00000000000e+00
1.44196349897e+08,1.55746446106e-01
*ELEMENT,TYPE=SPRINGA,ELSET=E542
542,542,543
*SPRING,ELSET=E542,NONLINEAR
0.00000000000e+00,-1.67812429608e-01
0.00000000000e+00,-1.21053635755e-02
1.04016000000e+07,0.00000000000e+00
1.44193749897e+08,1.55707066033e-01
*ELEMENT,TYPE=SPRINGA,ELSET=E543
543,543,544
*SPRING,ELSET=E543,NONLINEAR
0.00000000000e+00,-3.35494363384e-01
0.00000000000e+00,-2.41931098116e-02
1.03978000000e+07,0.00000000000e+00
1.44189949897e+08,3.11301253572e-01
*ELEMENT,TYPE=SPRINGA,ELSET=E544
544,544,545
*SPRING,ELSET=E544,NONLINEAR
0.00000000000e+00,-3.35313302856e-01
0.00000000000e+00,-2.41688322361e-02
1.03926000000e+07,0.00000000000e+00
1.44184749897e+08,3.11144470620e-01
*ELEMENT,TYPE=SPRINGA,ELSET=E545
545,545,546
*SPRING,ELSET=E545,NONLINEAR
0.00000000000e+00,-1.67591296563e-01
0.00000000000e+00,-1.20756068189e-02
1.03888000000e+07,0.00000000000e+00
1.44180949897e+08,1.55515689744e-01
*ELEMENT,TYPE=SPRINGA,ELSET=E546
546,546,547
*SPRING,ELSET=E546,NONLINEAR
0.00000000000e+00,-1.67546707387e-01
0.00000000000e+00,-1.20695902922e-02
1.03862000000e+07,0.00000000000e+00
1.44178349897e+08,1.55477117095e-01
*ELEMENT,TYPE=SPRINGA,ELSET=E547
547,547,548
*SPRING,ELSET=E547,NONLINEAR
0.00000000000e+00,-3.34965700549e-01
0.00000000000e+00,-2.41220033372e-02
1.03825000000e+07,0.00000000000e+00
1.44174649897e+08,3.10843697212e-01
*ELEMENT,TYPE=SPRINGA,ELSET=E548
548,548,549
*SPRING,ELSET=E548,NONLINEAR
0.00000000000e+00,-3.34788404693e-01
0.00000000000e+00,-2.40982453878e-02
1.03774000000e+07,0.00000000000e+00
1.44169549897e+08,3.10690159306e-01
*ELEMENT,TYPE=SPRINGA,ELSET=E549
549,549,550
*SPRING,ELSET=E549,NONLINEAR
0.00000000000e+00,-1.67330241543e-01
0.00000000000e+00,-1.20405333714e-02
1.03737000000e+07,0.00000000000e+00
1.44165849897e+08,1.55289708172e-01
*ELEMENT,TYPE=SPRINGA,ELSET=E550
550,550,551
*SPRING,ELSET=E550,NONLINEAR
0.00000000000e+00,-1.67286646492e-01
0.00000000000e+00,-1.20347041695e-02
1.03712000000e+07,0.00000000000e+00
1.44163349897e+08,1.55251942322e-01
*ELEMENT,TYPE=SPRINGA,ELSET=E551
551,551,552
*SPRING,ELSET=E551,NONLINEAR
0.00000000000e+00,-3.34448354856e-01
0.00000000000e+00,-2.40526691138e-02
1.03676000000e+07,0.00000000000e+00
1.44159749897e+08,3.10395685742e-01
*ELEMENT,TYPE=SPRINGA,ELSET=E552
552,552,553
*SPRING,ELSET=E552,NONLINEAR
0.00000000000e+00,-3.34274586955e-01
0.00000000000e+00,-2.40291964900e-02
1.03625000000e+07,0.00000000000e+00
1.44154649897e+08,3.10245390465e-01
*ELEMENT,TYPE=SPRINGA,ELSET=E553
553,553,554
*SPRING,ELSET=E553,NONLINEAR
0.00000000000e+00,-1.67074725485e-01
0.00000000000e+00,-1.20062280161e-02
1.03589000000e+07,0.00000000000e+00
1.44151049897e+08,1.55068497469e-01
*ELEMENT,TYPE=SPRINGA,ELSET=E554
554,554,555
*SPRING,ELSET=E554,NONLINEAR
0.00000000000e+00,-1.67032123219e-01
0.00000000000e+00,-1.20005854051e-02
1.03565000000e+07,0.00000000000e+00
1.44148649897e+08,1.55031537814e-01
*ELEMENT,TYPE=SPRINGA,ELSET=E555
555,555,556
*SPRING,ELSET=E555,NONLINEAR
0.00000000000e+00,-3.33914224785e-01
0.00000000000e+00,-2.39809319405e-02
1.03521000000e+07,0.00000000000e+00
1.44144249897e+08,3.09933292845e-01
*ELEMENT,TYPE=SPRINGA,ELSET=E556
556,556,557
*SPRING,ELSET=E556,NONLINEAR
0.00000000000e+00,-3.33744638418e-01
0.00000000000e+00,-2.39582218534e-02
1.03472000000e+07,0.00000000000e+00
1.44139349897e+08,3.09786416564e-01
*ELEMENT,TYPE=SPRINGA,ELSET=E557
557,557,558
*SPRING,ELSET=E557,NONLINEAR
0.00000000000e+00,-1.66811213160e-01
0.00000000000e+00,-1.19709645227e-02
1.03437000000e+07,0.00000000000e+00
1.44135849897e+08,1.54840248637e-01
*ELEMENT,TYPE=SPRINGA,ELSET=E558
558,558,559
*SPRING,ELSET=E558,NONLINEAR
0.00000000000e+00,-1.66769534918e-01
0.00000000000e+00,-1.19653959069e-02
1.03413000000e+07,0.00000000000e+00
1.44133449897e+08,1.54804139011e-01
*ELEMENT,TYPE=SPRINGA,ELSET=E559
559,559,560
*SPRING,ELSET=E559,NONLINEAR
0.00000000000e+00,-3.33419576360e-01
0.00000000000e+00,-2.39147026621e-02
1.03378000000e+07,0.00000000000e+00
1.44129949897e+08,3.09504873698e-01
*ELEMENT,TYPE=SPRINGA,ELSET=E560
560,560,561
*SPRING,ELSET=E560,NONLINEAR
0.00000000000e+00,-3.33253740515e-01
0.00000000000e+00,-2.38925052512e-02
1.03330000000e+07,0.00000000000e+00
1.44125149897e+08,3.09361235264e-01
*ELEMENT,TYPE=SPRINGA,ELSET=E561
561,561,562
*SPRING,ELSET=E561,NONLINEAR
0.00000000000e+00,-1.66567154567e-01
0.00000000000e+00,-1.19383235427e-02
1.03296000000e+07,0.00000000000e+00
1.44121749897e+08,1.54628831024e-01
*ELEMENT,TYPE=SPRINGA,ELSET=E562
562,562,563
*SPRING,ELSET=E562,NONLINEAR
0.00000000000e+00,-1.66526351038e-01
0.00000000000e+00,-1.19328246601e-02
1.03272000000e+07,0.00000000000e+00
1.44119349897e+08,1.54593526378e-01
*ELEMENT,TYPE=SPRINGA,ELSET=E563
563,563,564
*SPRING,ELSET=E563,NONLINEAR
0.00000000000e+00,-3.32935969041e-01
0.00000000000e+00,-2.38499927291e-02
1.03238000000e+07,0.00000000000e+00
1.44115949897e+08,3.09085976312e-01
*ELEMENT,TYPE=SPRINGA,ELSET=E564
564,564,565
*SPRING,ELSET=E564,NONLINEAR
0.00000000000e+00,-3.32773879329e-01
0.00000000000e+00,-2.38283058445e-02
1.03191000000e+07,0.00000000000e+00
1.44111249897e+08,3.08945573484e-01
*ELEMENT,TYPE=SPRINGA,ELSET=E565
565,565,566
*SPRING,ELSET=E565,NONLINEAR
0.00000000000e+00,-1.66328613197e-01
0.00000000000e+00,-1.19064403404e-02
1.03158000000e+07,0.00000000000e+00
1.44107949897e+08,1.54422172857e-01
*ELEMENT,TYPE=SPRINGA,ELSET=E566
566,566,567
*SPRING,ELSET=E566,NONLINEAR
0.00000000000e+00,-1.66288798838e-01
0.00000000000e+00,-1.19011262087e-02
1.03135000000e+07,0.00000000000e+00
1.44105649897e+08,1.54387672629e-01
*ELEMENT,TYPE=SPRINGA,ELSET=E567
567,567,568
*SPRING,ELSET=E567,NONLINEAR
0.00000000000e+00,-3.32462582821e-01
0.00000000000e+00,-2.37867380807e-02
1.03101000000e+07,0.00000000000e+00
1.44102249897e+08,3.08675844740e-01
*ELEMENT,TYPE=SPRINGA,ELSET=E568
568,568,569
*SPRING,ELSET=E568,NONLINEAR
0.00000000000e+00,-3.31766223253e-01
0.00000000000e+00,-2.36939443208e-02
1.02900000000e+07,0.00000000000e+00
1.44082149897e+08,3.08072278933e-01
*ELEMENT,TYPE=SPRINGA,ELSET=E569
569,569,570
*SPRING,ELSET=E569,NONLINEAR
0.00000000000e+00,-1.65828065581e-01
0.00000000000e+00,-1.18396208901e-02
1.02868000000e+07,0.00000000000e+00
1.44078949897e+08,1.53988444691e-01
*ELEMENT,TYPE=SPRINGA,ELSET=E570
570,570,571
*SPRING,ELSET=E570,NONLINEAR
0.00000000000e+00,-1.65790266241e-01
0.00000000000e+00,-1.18345713198e-02
1.02846000000e+07,0.00000000000e+00
1.44076749897e+08,1.53955694922e-01
*ELEMENT,TYPE=SPRINGA,ELSET=E571
571,571,572
*SPRING,ELSET=E571,NONLINEAR
0.00000000000e+00,-3.31471491830e-01
0.00000000000e+00,-2.36545222807e-02
1.02814000000e+07,0.00000000000e+00
1.44073549897e+08,3.07816969549e-01
*ELEMENT,TYPE=SPRINGA,ELSET=E572
572,572,573
*SPRING,ELSET=E572,NONLINEAR
0.00000000000e+00,-3.31321475186e-01
0.00000000000e+00,-2.36346335881e-02
1.02771000000e+07,0.00000000000e+00
1.44069249897e+08,3.07686841598e-01
*ELEMENT,TYPE=SPRINGA,ELSET=E573
573,573,574
*SPRING,ELSET=E573,NONLINEAR
0.00000000000e+00,-1.65607070233e-01
0.00000000000e+00,-1.18101791489e-02
1.02740000000e+07,0.00000000000e+00
1.44066149897e+08,1.53796891084e-01
*ELEMENT,TYPE=SPRINGA,ELSET=E574
574,574,575
*SPRING,ELSET=E574,NONLINEAR
0.00000000000e+00,-1.65570256436e-01
0.00000000000e+00,-1.18053124169e-02
1.02719000000e+07,0.00000000000e+00
1.44064049897e+08,1.53764944019e-01
*ELEMENT,TYPE=SPRINGA,ELSET=E575
575,575,576
*SPRING,ELSET=E575,NONLINEAR
0.00000000000e+00,-3.31034228094e-01
0.00000000000e+00,-2.35964311209e-02
1.02688000000e+07,0.00000000000e+00
1.44060949897e+08,3.07437796973e-01
*ELEMENT,TYPE=SPRINGA,ELSET=E576
576,576,577
*SPRING,ELSET=E576,NONLINEAR
0.00000000000e+00,-3.30887710735e-01
0.00000000000e+00,-2.35768144634e-02
1.02645000000e+07,0.00000000000e+00
1.44056649897e+08,3.07310896272e-01
*ELEMENT,TYPE=SPRINGA,ELSET=E577
577,577,578
*SPRING,ELSET=E577,NONLINEAR
0.00000000000e+00,-1.65391565048e-01
0.00000000000e+00,-1.17814824265e-02
1.02615000000e+07,0.00000000000e+00
1.44053649897e+08,1.53610082621e-01
*ELEMENT,TYPE=SPRINGA,ELSET=E578
578,578,579
*SPRING,ELSET=E578,NONLINEAR
0.00000000000e+00,-1.65355620873e-01
0.00000000000e+00,-1.17766831249e-02
1.02594000000e+07,0.00000000000e+00
1.44051549897e+08,1.53578937748e-01
*ELEMENT,TYPE=SPRINGA,ELSET=E579
579,579,580
*SPRING,ELSET=E579,NONLINEAR
0.00000000000e+00,-3.30607709654e-01
0.00000000000e+00,-2.35395976962e-02
1.02564000000e+07,0.00000000000e+00
1.44048549897e+08,3.07068111957e-01
*ELEMENT,TYPE=SPRINGA,ELSET=E580
580,580,581
*SPRING,ELSET=E580,NONLINEAR
0.00000000000e+00,-3.30465147208e-01
0.00000000000e+00,-2.35207106636e-02
1.02523000000e+07,0.00000000000e+00
1.44044449897e+08,3.06944436544e-01
*ELEMENT,TYPE=SPRINGA,ELSET=E581
581,581,582
*SPRING,ELSET=E581,NONLINEAR
0.00000000000e+00,-1.65170091490e-01
0.00000000000e+00,-1.17520739281e-02
1.02487000000e+07,0.00000000000e+00
1.44040849897e+08,1.53418017562e-01
*ELEMENT,TYPE=SPRINGA,ELSET=E582
582,582,583
*SPRING,ELSET=E582,NONLINEAR
0.00000000000e+00,-1.65135179104e-01
0.00000000000e+00,-1.17474600841e-02
1.02467000000e+07,0.00000000000e+00
1.44038849897e+08,1.53387719020e-01
*ELEMENT,TYPE=SPRINGA,ELSET=E583
583,583,584
*SPRING,ELSET=E583,NONLINEAR
0.00000000000e+00,-3.30169486493e-01
0.00000000000e+00,-2.34813566984e-02
1.02437000000e+07,0.00000000000e+00
1.44035849897e+08,3.06688129795e-01
*ELEMENT,TYPE=SPRINGA,ELSET=E584
584,584,585
*SPRING,ELSET=E584,NONLINEAR
0.00000000000e+00,-3.30030839813e-01
0.00000000000e+00,-2.34629826170e-02
1.02397000000e+07,0.00000000000e+00
1.44031849897e+08,3.06567857196e-01
*ELEMENT,TYPE=SPRINGA,ELSET=E585
585,585,586
*SPRING,ELSET=E585,NONLINEAR
0.00000000000e+00,-1.64965834334e-01
0.00000000000e+00,-1.17248806862e-02
1.02368000000e+07,0.00000000000e+00
1.44028949897e+08,1.53240953647e-01
*ELEMENT,TYPE=SPRINGA,ELSET=E586
586,586,587
*SPRING,ELSET=E586,NONLINEAR
0.00000000000e+00,-1.64931904290e-01
0.00000000000e+00,-1.17204479883e-02
1.02349000000e+07,0.00000000000e+00
1.44027049897e+08,1.53211456302e-01
*ELEMENT,TYPE=SPRINGA,ELSET=E587
587,587,588
*SPRING,ELSET=E587,NONLINEAR
0.00000000000e+00,-3.29765683297e-01
0.00000000000e+00,-2.34277548169e-02
1.02320000000e+07,0.00000000000e+00
1.44024149897e+08,3.06337928480e-01
*ELEMENT,TYPE=SPRINGA,ELSET=E588
588,588,589
*SPRING,ELSET=E588,NONLINEAR
0.00000000000e+00,-3.29630754172e-01
0.00000000000e+00,-2.34098768691e-02
1.02281000000e+07,0.00000000000e+00
1.44020249897e+08,3.06220877303e-01
*ELEMENT,TYPE=SPRINGA,ELSET=E589
589,589,590
*SPRING,ELSET=E589,NONLINEAR
0.00000000000e+00,-1.64767163866e-01
0.00000000000e+00,-1.16985384888e-02
1.02253000000e+07,0.00000000000e+00
1.44017449897e+08,1.53068625377e-01
*ELEMENT,TYPE=SPRINGA,ELSET=E590
590,590,591
*SPRING,ELSET=E590,NONLINEAR
0.00000000000e+00,-1.64734100717e-01
0.00000000000e+00,-1.16941719590e-02
1.02234000000e+07,0.00000000000e+00
1.44015549897e+08,1.53039928758e-01
*ELEMENT,TYPE=SPRINGA,ELSET=E591
591,591,592
*SPRING,ELSET=E591,NONLINEAR
0.00000000000e+00,-3.29373048288e-01
0.00000000000e+00,-2.33758523426e-02
1.02207000000e+07,0.00000000000e+00
1.44012849897e+08,3.05997195945e-01
*ELEMENT,TYPE=SPRINGA,ELSET=E592
592,592,593
*SPRING,ELSET=E592,NONLINEAR
0.00000000000e+00,-3.29241833091e-01
0.00000000000e+00,-2.33584686998e-02
1.02169000000e+07,0.00000000000e+00
1.44009049897e+08,3.05883364391e-01
*ELEMENT,TYPE=SPRINGA,ELSET=E593
593,593,594
*SPRING,ELSET=E593,NONLINEAR
0.00000000000e+00,-1.64573959875e-01
0.00000000000e+00,-1.16729300621e-02
1.02141000000e+07,0.00000000000e+00
1.44006249897e+08,1.52901029813e-01
*ELEMENT,TYPE=SPRINGA,ELSET=E594
594,594,595
*SPRING,ELSET=E594,NONLINEAR
0.00000000000e+00,-1.64541877126e-01
0.00000000000e+00,-1.16687436602e-02
1.02123000000e+07,0.00000000000e+00
1.44004449897e+08,1.52873133466e-01
*ELEMENT,TYPE=SPRINGA,ELSET=E595
595,595,596
*SPRING,ELSET=E595,NONLINEAR
0.00000000000e+00,-3.28970122108e-01
0.00000000000e+00,-2.33224247098e-02
1.02090000000e+07,0.00000000000e+00
1.44001149897e+08,3.05647697398e-01
*ELEMENT,TYPE=SPRINGA,ELSET=E596
596,596,597
*SPRING,ELSET=E596,NONLINEAR
0.00000000000e+00,-3.28842811930e-01
0.00000000000e+00,-2.33055484732e-02
1.02053000000e+07,0.00000000000e+00
1.43997449897e+08,3.05537263457e-01
*ELEMENT,TYPE=SPRINGA,ELSET=E597
597,597,598
*SPRING,ELSET=E597,NONLINEAR
0.00000000000e+00,-1.64376003088e-01
0.00000000000e+00,-1.16467988120e-02
1.02027000000e+07,0.00000000000e+00
1.43994849897e+08,1.52729204276e-01
*ELEMENT,TYPE=SPRINGA,ELSET=E598
598,598,599
*SPRING,ELSET=E598,NONLINEAR
0.00000000000e+00,-1.64344833927e-01
0.00000000000e+00,-1.16426814878e-02
1.02009000000e+07,0.00000000000e+00
1.43993049897e+08,1.52702152439e-01
*ELEMENT,TYPE=SPRINGA,ELSET=E599
599,599,600
*SPRING,ELSET=E599,NONLINEAR
0.00000000000e+00,-3.28599904119e-01
0.00000000000e+00,-2.32734907389e-02
1.01983000000e+07,0.00000000000e+00
1.43990449897e+08,3.05326413380e-01
*ELEMENT,TYPE=SPRINGA,ELSET=E600
600,600,601
*SPRING,ELSET=E600,NONLINEAR
0.00000000000e+00,-3.28476300940e-01
0.00000000000e+00,-2.32571054064e-02
1.01947000000e+07,0.00000000000e+00
1.43986849897e+08,3.05219195533e-01
*ELEMENT,TYPE=SPRINGA,ELSET=E601
601,601,602
*SPRING,ELSET=E601,NONLINEAR
0.00000000000e+00,-1.64194001489e-01
0.00000000000e+00,-1.16226718115e-02
1.01921000000e+07,0.00000000000e+00
1.43984249897e+08,1.52571329678e-01
*ELEMENT,TYPE=SPRINGA,ELSET=E602
602,602,603
*SPRING,ELSET=E602,NONLINEAR
0.00000000000e+00,-1.64163810879e-01
0.00000000000e+00,-1.16187336561e-02
1.01904000000e+07,0.00000000000e+00
1.43982549897e+08,1.52545077223e-01
*ELEMENT,TYPE=SPRINGA,ELSET=E603
603,603,604
*SPRING,ELSET=E603,NONLINEAR
0.00000000000e+00,-3.28240364742e-01
0.00000000000e+00,-2.32257838005e-02
1.01878000000e+07,0.00000000000e+00
1.43979949897e+08,3.05014580942e-01
*ELEMENT,TYPE=SPRINGA,ELSET=E604
604,604,605
*SPRING,ELSET=E604,NONLINEAR
0.00000000000e+00,-3.28120693299e-01
0.00000000000e+00,-2.32101157530e-02
1.01844000000e+07,0.00000000000e+00
1.43976549897e+08,3.04910577546e-01
*ELEMENT,TYPE=SPRINGA,ELSET=E605
605,605,606
*SPRING,ELSET=E605,NONLINEAR
0.00000000000e+00,-4.09539770349e-01
0.00000000000e+00,-2.89318795878e-02
1.01702000000e+07,0.00000000000e+00
1.43962349897e+08,3.80607890761e-01
*ELEMENT,TYPE=SPRINGA,ELSET=E606
606,606,607
*SPRING,ELSET=E606,NONLINEAR
0.00000000000e+00,-2.18357865982e-01
0.00000000000e+00,-1.54219137818e-02
1.01674000000e+07,0.00000000000e+00
1.43959549897e+08,2.02935952200e-01
*ELEMENT,TYPE=SPRINGA,ELSET=E607
607,607,608
*SPRING,ELSET=E607,NONLINEAR
0.00000000000e+00,-6.96470334595e-02
0.00000000000e+00,-4.91840641451e-03
1.01662000000e+07,0.00000000000e+00
1.43958349897e+08,6.47286270450e-02
*ELEMENT,TYPE=SPRINGA,ELSET=E608
608,608,609
*SPRING,ELSET=E608,NONLINEAR
0.00000000000e+00,-4.02314948525e-02
0.00000000000e+00,-2.88554838186e-03
1.03375000000e+07,0.00000000000e+00
1.44129649897e+08,3.73459464707e-02
*ELEMENT,TYPE=SPRINGA,ELSET=E609
609,609,610
*SPRING,ELSET=E609,NONLINEAR
0.00000000000e+00,-2.77784495107e-01
0.00000000000e+00,-1.99203097924e-02
1.03356000000e+07,0.00000000000e+00
1.44127749897e+08,2.57864185315e-01
*ELEMENT,TYPE=SPRINGA,ELSET=E610
610,610,611
*SPRING,ELSET=E610,NONLINEAR
0.00000000000e+00,-2.77684421297e-01
0.00000000000e+00,-1.99068734882e-02
1.03321000000e+07,0.00000000000e+00
1.44124249897e+08,2.57777547808e-01
*ELEMENT,TYPE=SPRINGA,ELSET=E611
611,611,612
*SPRING,ELSET=E611,NONLINEAR
0.00000000000e+00,-1.66305370104e-01
0.00000000000e+00,-1.19032765036e-02
1.03144000000e+07,0.00000000000e+00
1.44106549897e+08,1.54402093601e-01
*ELEMENT,TYPE=SPRINGA,ELSET=E612
612,612,613
*SPRING,ELSET=E612,NONLINEAR
0.00000000000e+00,-3.32495776654e-01
0.00000000000e+00,-2.37912552639e-02
1.03111000000e+07,0.00000000000e+00
1.44103249897e+08,3.08704521390e-01
*ELEMENT,TYPE=SPRINGA,ELSET=E613
613,613,614
*SPRING,ELSET=E613,NONLINEAR
0.00000000000e+00,-3.32337184640e-01
0.00000000000e+00,-2.37700574984e-02
1.03065000000e+07,0.00000000000e+00
1.44098649897e+08,3.08567127141e-01
*ELEMENT,TYPE=SPRINGA,ELSET=E614
614,614,615
*SPRING,ELSET=E614,NONLINEAR
0.00000000000e+00,-1.66111850318e-01
0.00000000000e+00,-1.18774382200e-02
1.03032000000e+07,0.00000000000e+00
1.44095349897e+08,1.54234412098e-01
*ELEMENT,TYPE=SPRINGA,ELSET=E615
615,615,616
*SPRING,ELSET=E615,NONLINEAR
0.00000000000e+00,-1.66072962151e-01
0.00000000000e+00,-1.18723033284e-02
1.03010000000e+07,0.00000000000e+00
1.44093149897e+08,1.54200658822e-01
*ELEMENT,TYPE=SPRINGA,ELSET=E616
616,616,617
*SPRING,ELSET=E616,NONLINEAR
0.00000000000e+00,-3.32033493523e-01
0.00000000000e+00,-2.37295084192e-02
1.02977000000e+07,0.00000000000e+00
1.44089849897e+08,3.08303985103e-01
*ELEMENT,TYPE=SPRINGA,ELSET=E617
617,617,618
*SPRING,ELSET=E617,NONLINEAR
0.00000000000e+00,-3.31878639866e-01
0.00000000000e+00,-2.37088171581e-02
1.02932000000e+07,0.00000000000e+00
1.44085349897e+08,3.08169822708e-01
*ELEMENT,TYPE=SPRINGA,ELSET=E618
618,618,619
*SPRING,ELSET=E618,NONLINEAR
0.00000000000e+00,-1.65883958723e-01
0.00000000000e+00,-1.18470326580e-02
1.02900000000e+07,0.00000000000e+00
1.44082149897e+08,1.54036926065e-01
*ELEMENT,TYPE=SPRINGA,ELSET=E619
619,619,620
*SPRING,ELSET=E619,NONLINEAR
0.00000000000e+00,-1.65845942266e-01
0.00000000000e+00,-1.18419661172e-02
1.02878000000e+07,0.00000000000e+00
1.44079949897e+08,1.54003976149e-01
*ELEMENT,TYPE=SPRINGA,ELSET=E620
620,620,621
*SPRING,ELSET=E620,NONLINEAR
0.00000000000e+00,-3.31557528724e-01
0.00000000000e+00,-2.36660046696e-02
1.02839000000e+07,0.00000000000e+00
1.44076049897e+08,3.07891524054e-01
*ELEMENT,TYPE=SPRINGA,ELSET=E621
621,621,622
*SPRING,ELSET=E621,NONLINEAR
0.00000000000e+00,-3.31406833748e-01
0.00000000000e+00,-2.36460630944e-02
1.02796000000e+07,0.00000000000e+00
1.44071749897e+08,3.07760770653e-01
*ELEMENT,TYPE=SPRINGA,ELSET=E622
622,622,623
*SPRING,ELSET=E622,NONLINEAR
0.00000000000e+00,-1.65649389846e-01
0.00000000000e+00,-1.18157598659e-02
1.02764000000e+07,0.00000000000e+00
1.44068549897e+08,1.53833629980e-01
*ELEMENT,TYPE=SPRINGA,ELSET=E623
623,623,624
*SPRING,ELSET=E623,NONLINEAR
0.00000000000e+00,-1.65612407492e-01
0.00000000000e+00,-1.18108800454e-02
1.02743000000e+07,0.00000000000e+00
1.44066449897e+08,1.53801527447e-01
*ELEMENT,TYPE=SPRINGA,ELSET=E624
624,624,625
*SPRING,ELSET=E624,NONLINEAR
0.00000000000e+00,-3.31118041123e-01
0.00000000000e+00,-2.36075283992e-02
1.02712000000e+07,0.00000000000e+00
1.44063349897e+08,3.07510512724e-01
*ELEMENT,TYPE=SPRINGA,ELSET=E625
625,625,626
*SPRING,ELSET=E625,NONLINEAR
0.00000000000e+00,-3.30970846122e-01
0.00000000000e+00,-2.35878591625e-02
1.02669000000e+07,0.00000000000e+00
1.44059049897e+08,3.07382986960e-01
*ELEMENT,TYPE=SPRINGA,ELSET=E626
626,626,627
*SPRING,ELSET=E626,NONLINEAR
0.00000000000e+00,-1.65432888351e-01
0.00000000000e+00,-1.17869858569e-02
1.02639000000e+07,0.00000000000e+00
1.44056049897e+08,1.53645902494e-01
*ELEMENT,TYPE=SPRINGA,ELSET=E627
627,627,628
*SPRING,ELSET=E627,NONLINEAR
0.00000000000e+00,-1.65396775767e-01
0.00000000000e+00,-1.17821735175e-02
1.02618000000e+07,0.00000000000e+00
1.44053949897e+08,1.53614602249e-01
*ELEMENT,TYPE=SPRINGA,ELSET=E628
628,628,629
*SPRING,ELSET=E628,NONLINEAR
0.00000000000e+00,-3.30689530892e-01
0.00000000000e+00,-2.35505407076e-02
1.02588000000e+07,0.00000000000e+00
1.44050949897e+08,3.07138990184e-01
*ELEMENT,TYPE=SPRINGA,ELSET=E629
629,629,630
*SPRING,ELSET=E629,NONLINEAR
0.00000000000e+00,-3.30546062017e-01
0.00000000000e+00,-2.35313719329e-02
1.02546000000e+07,0.00000000000e+00
1.44046749897e+08,3.07014690084e-01
*ELEMENT,TYPE=SPRINGA,ELSET=E630
630,630,631
*SPRING,ELSET=E630,NONLINEAR
0.00000000000e+00,-1.65221871977e-01
0.00000000000e+00,-1.17589544167e-02
1.02517000000e+07,0.00000000000e+00
1.44043849897e+08,1.53462917560e-01
*ELEMENT,TYPE=SPRINGA,ELSET=E631
631,631,632
*SPRING,ELSET=E631,NONLINEAR
0.00000000000e+00,-1.65186628346e-01
0.00000000000e+00,-1.17542092283e-02
1.02496000000e+07,0.00000000000e+00
1.44041749897e+08,1.53432419118e-01
*ELEMENT,TYPE=SPRINGA,ELSET=E632
632,632,633
*SPRING,ELSET=E632,NONLINEAR
0.00000000000e+00,-1.65663199718e-01
0.00000000000e+00,-1.17859841234e-02
1.02476000000e+07,0.00000000000e+00
1.44039749897e+08,1.53877215594e-01
*ELEMENT,TYPE=SPRINGA,ELSET=E633
633,633,634
*SPRING,ELSET=E633,NONLINEAR
0.00000000000e+00,-1.64597483566e-01
0.00000000000e+00,-1.17076170857e-02
1.02452000000e+07,0.00000000000e+00
1.44037349897e+08,1.52889866480e-01
*ELEMENT,TYPE=SPRINGA,ELSET=E634
634,634,635
*SPRING,ELSET=E634,NONLINEAR
0.00000000000e+00,-3.30109648308e-01
0.00000000000e+00,-2.34734819512e-02
1.02420000000e+07,0.00000000000e+00
1.44034149897e+08,3.06636166357e-01
*ELEMENT,TYPE=SPRINGA,ELSET=E635
635,635,636
*SPRING,ELSET=E635,NONLINEAR
0.00000000000e+00,-1.65004994755e-01
0.00000000000e+00,-1.17301116460e-02
1.02391000000e+07,0.00000000000e+00
1.44031249897e+08,1.53274883109e-01
*ELEMENT,TYPE=SPRINGA,ELSET=E636
636,636,637
*SPRING,ELSET=E636,NONLINEAR
0.00000000000e+00,-1.64970782143e-01
0.00000000000e+00,-1.17255515465e-02
1.02371000000e+07,0.00000000000e+00
1.44029249897e+08,1.53245230596e-01
*ELEMENT,TYPE=SPRINGA,ELSET=E637
637,637,638
*SPRING,ELSET=E637,NONLINEAR
0.00000000000e+00,-3.29843180656e-01
0.00000000000e+00,-2.34381536599e-02
1.02343000000e+07,0.00000000000e+00
1.44026449897e+08,3.06405026996e-01
*ELEMENT,TYPE=SPRINGA,ELSET=E638
638,638,639
*SPRING,ELSET=E638,NONLINEAR
0.00000000000e+00,-3.29707575968e-01
0.00000000000e+00,-2.34202240385e-02
1.02304000000e+07,0.00000000000e+00
1.44022549897e+08,3.06287351929e-01
*ELEMENT,TYPE=SPRINGA,ELSET=E639
639,639,640
*SPRING,ELSET=E639,NONLINEAR
0.00000000000e+00,-1.64805216748e-01
0.00000000000e+00,-1.17035790289e-02
1.02275000000e+07,0.00000000000e+00
1.44019649897e+08,1.53101637719e-01
*ELEMENT,TYPE=SPRINGA,ELSET=E640
640,640,641
*SPRING,ELSET=E640,NONLINEAR
0.00000000000e+00,-1.64771985734e-01
0.00000000000e+00,-1.16991997065e-02
1.02256000000e+07,0.00000000000e+00
1.44017749897e+08,1.53072786027e-01
*ELEMENT,TYPE=SPRINGA,ELSET=E641
641,641,642
*SPRING,ELSET=E641,NONLINEAR
0.00000000000e+00,-3.29448102720e-01
0.00000000000e+00,-2.33856420246e-02
1.02228000000e+07,0.00000000000e+00
1.44014949897e+08,3.06062460695e-01
*ELEMENT,TYPE=SPRINGA,ELSET=E642
642,642,643
*SPRING,ELSET=E642,NONLINEAR
0.00000000000e+00,-3.29316212718e-01
0.00000000000e+00,-2.33682071157e-02
1.02190000000e+07,0.00000000000e+00
1.44011149897e+08,3.05948005603e-01
*ELEMENT,TYPE=SPRINGA,ELSET=E643
643,643,644
*SPRING,ELSET=E643,NONLINEAR
0.00000000000e+00,-1.64611020694e-01
0.00000000000e+00,-1.16778950952e-02
1.02163000000e+07,0.00000000000e+00
1.44008449897e+08,1.52933125599e-01
*ELEMENT,TYPE=SPRINGA,ELSET=E644
644,644,645
*SPRING,ELSET=E644,NONLINEAR
0.00000000000e+00,-1.64578655951e-01
0.00000000000e+00,-1.16735816846e-02
1.02144000000e+07,0.00000000000e+00
1.44006549897e+08,1.52905074266e-01
*ELEMENT,TYPE=SPRINGA,ELSET=E645
645,645,646
*SPRING,ELSET=E645,NONLINEAR
0.00000000000e+00,-3.29064184120e-01
0.00000000000e+00,-2.33348256410e-02
1.02117000000e+07,0.00000000000e+00
1.44003849897e+08,3.05729358479e-01
*ELEMENT,TYPE=SPRINGA,ELSET=E646
646,646,647
*SPRING,ELSET=E646,NONLINEAR
0.00000000000e+00,-3.28498359920e-01
0.00000000000e+00,-2.32599391911e-02
1.01953000000e+07,0.00000000000e+00
1.43987449897e+08,3.05238420729e-01
*ELEMENT,TYPE=SPRINGA,ELSET=E647
647,647,648
*SPRING,ELSET=E647,NONLINEAR
0.00000000000e+00,-1.64205068205e-01
0.00000000000e+00,-1.16241969761e-02
1.01928000000e+07,0.00000000000e+00
1.43984949897e+08,1.52580871229e-01
*ELEMENT,TYPE=SPRINGA,ELSET=E648
648,648,649
*SPRING,ELSET=E648,NONLINEAR
0.00000000000e+00,-1.64174710593e-01
0.00000000000e+00,-1.16201408071e-02
1.01910000000e+07,0.00000000000e+00
1.43983149897e+08,1.52554569786e-01
*ELEMENT,TYPE=SPRINGA,ELSET=E649
649,649,650
*SPRING,ELSET=E649,NONLINEAR
0.00000000000e+00,-3.28262238589e-01
0.00000000000e+00,-2.32288145682e-02
1.01885000000e+07,0.00000000000e+00
1.43980649897e+08,3.05033424020e-01
*ELEMENT,TYPE=SPRINGA,ELSET=E650
650,650,651
*SPRING,ELSET=E650,NONLINEAR
0.00000000000e+00,-3.28142126216e-01
0.00000000000e+00,-2.32129025884e-02
1.01850000000e+07,0.00000000000e+00
1.43977149897e+08,3.04929223628e-01
*ELEMENT,TYPE=SPRINGA,ELSET=E651
651,651,652
*SPRING,ELSET=E651,NONLINEAR
0.00000000000e+00,-1.64028204073e-01
0.00000000000e+00,-1.16007726997e-02
1.01825000000e+07,0.00000000000e+00
1.43974649897e+08,1.52427431374e-01
*ELEMENT,TYPE=SPRINGA,ELSET=E652
652,652,653
*SPRING,ELSET=E652,NONLINEAR
0.00000000000e+00,-1.63998824255e-01
0.00000000000e+00,-1.15968953277e-02
1.01808000000e+07,0.00000000000e+00
1.43972949897e+08,1.52401928927e-01
*ELEMENT,TYPE=SPRINGA,ELSET=E653
653,653,654
*SPRING,ELSET=E653,NONLINEAR
0.00000000000e+00,-3.27913198071e-01
0.00000000000e+00,-2.31827390924e-02
1.01784000000e+07,0.00000000000e+00
1.43970549897e+08,3.04730458979e-01
*ELEMENT,TYPE=SPRINGA,ELSET=E654
654,654,655
*SPRING,ELSET=E654,NONLINEAR
0.00000000000e+00,-3.27796786484e-01
0.00000000000e+00,-2.31673149386e-02
1.01750000000e+07,0.00000000000e+00
1.43967149897e+08,3.04629471546e-01
*ELEMENT,TYPE=SPRINGA,ELSET=E655
655,655,656
*SPRING,ELSET=E655,NONLINEAR
0.00000000000e+00,-1.63856899660e-01
0.00000000000e+00,-1.15781863176e-02
1.01726000000e+07,0.00000000000e+00
1.43964749897e+08,1.52278713342e-01
*ELEMENT,TYPE=SPRINGA,ELSET=E656
656,656,657
*SPRING,ELSET=E656,NONLINEAR
0.00000000000e+00,-1.63828382919e-01
0.00000000000e+00,-1.15743734314e-02
1.01709000000e+07,0.00000000000e+00
1.43963049897e+08,1.52254009487e-01
*ELEMENT,TYPE=SPRINGA,ELSET=E657
657,657,658
*SPRING,ELSET=E657,NONLINEAR
0.00000000000e+00,-3.27574817430e-01
0.00000000000e+00,-2.31378820075e-02
1.01685000000e+07,0.00000000000e+00
1.43960649897e+08,3.04436935423e-01
*ELEMENT,TYPE=SPRINGA,ELSET=E658
658,658,659
*SPRING,ELSET=E658,NONLINEAR
0.00000000000e+00,-1.64250907160e-01
0.00000000000e+00,-1.15990287690e-02
1.01660000000e+07,0.00000000000e+00
1.43958149897e+08,1.52651878391e-01
*ELEMENT,TYPE=SPRINGA,ELSET=E659
659,659,660
*SPRING,ELSET=E659,NONLINEAR
0.00000000000e+00,-1.63202213173e-01
0.00000000000e+00,-1.15228650938e-02
1.01640000000e+07,0.00000000000e+00
1.43956149897e+08,1.51679348079e-01
*ELEMENT,TYPE=SPRINGA,ELSET=E660
660,660,661
*SPRING,ELSET=E660,NONLINEAR
0.00000000000e+00,-1.63681813326e-01
0.00000000000e+00,-1.15550363704e-02
1.01624000000e+07,0.00000000000e+00
1.43954549897e+08,1.52126776956e-01
*ELEMENT,TYPE=SPRINGA,ELSET=E661
661,661,662
*SPRING,ELSET=E661,NONLINEAR
0.00000000000e+00,-1.63654321074e-01
0.00000000000e+00,-1.15514050025e-02
1.01608000000e+07,0.00000000000e+00
1.43952949897e+08,1.52102916072e-01
*ELEMENT,TYPE=SPRINGA,ELSET=E662
662,662,663
*SPRING,ELSET=E662,NONLINEAR
0.00000000000e+00,-3.27229561170e-01
0.00000000000e+00,-2.30923688050e-02
1.01585000000e+07,0.00000000000e+00
1.43950649897e+08,3.04137192365e-01
*ELEMENT,TYPE=SPRINGA,ELSET=E663
663,663,664
*SPRING,ELSET=E663,NONLINEAR
0.00000000000e+00,-3.27120963864e-01
0.00000000000e+00,-2.30781575567e-02
1.01554000000e+07,0.00000000000e+00
1.43947549897e+08,3.04042806308e-01
*ELEMENT,TYPE=SPRINGA,ELSET=E664
664,664,665
*SPRING,ELSET=E664,NONLINEAR
0.00000000000e+00,-1.63521671904e-01
0.00000000000e+00,-1.15339122909e-02
1.01531000000e+07,0.00000000000e+00
1.43945249897e+08,1.51987759613e-01
*ELEMENT,TYPE=SPRINGA,ELSET=E665
665,665,666
*SPRING,ELSET=E665,NONLINEAR
0.00000000000e+00,-1.63495154906e-01
0.00000000000e+00,-1.15304583612e-02
1.01516000000e+07,0.00000000000e+00
1.43943749897e+08,1.51964696545e-01
*ELEMENT,TYPE=SPRINGA,ELSET=E666
666,666,667
*SPRING,ELSET=E666,NONLINEAR
0.00000000000e+00,-3.26914474771e-01
0.00000000000e+00,-2.30509242996e-02
1.01494000000e+07,0.00000000000e+00
1.43941549897e+08,3.03863550472e-01
*ELEMENT,TYPE=SPRINGA,ELSET=E667
667,667,668
*SPRING,ELSET=E667,NONLINEAR
0.00000000000e+00,-3.26809333078e-01
0.00000000000e+00,-2.30369684999e-02
1.01463000000e+07,0.00000000000e+00
1.43938449897e+08,3.03772364578e-01
*ELEMENT,TYPE=SPRINGA,ELSET=E668
668,668,669
*SPRING,ELSET=E668,NONLINEAR
0.00000000000e+00,-1.63367075508e-01
0.00000000000e+00,-1.15136189611e-02
1.01442000000e+07,0.00000000000e+00
1.43936349897e+08,1.51853456547e-01
*ELEMENT,TYPE=SPRINGA,ELSET=E669
669,669,670
*SPRING,ELSET=E669,NONLINEAR
0.00000000000e+00,-1.63341419457e-01
0.00000000000e+00,-1.15102285257e-02
1.01427000000e+07,0.00000000000e+00
1.43934849897e+08,1.51831190931e-01
*ELEMENT,TYPE=SPRINGA,ELSET=E670
670,670,671
*SPRING,ELSET=E670,NONLINEAR
0.00000000000e+00,-3.26609473457e-01
0.00000000000e+00,-2.30106467710e-02
1.01405000000e+07,0.00000000000e+00
1.43932649897e+08,3.03598826686e-01
*ELEMENT,TYPE=SPRINGA,ELSET=E671
671,671,672
*SPRING,ELSET=E671,NONLINEAR
0.00000000000e+00,-3.26508247605e-01
0.00000000000e+00,-2.29973998655e-02
1.01376000000e+07,0.00000000000e+00
1.43929749897e+08,3.03510847739e-01
*ELEMENT,TYPE=SPRINGA,ELSET=E672
672,672,673
*SPRING,ELSET=E672,NONLINEAR
0.00000000000e+00,-1.63209536692e-01
0.00000000000e+00,-1.14928188015e-02
1.01350000000e+07,0.00000000000e+00
1.43927149897e+08,1.51716717891e-01
*ELEMENT,TYPE=SPRINGA,ELSET=E673
673,673,674
*SPRING,ELSET=E673,NONLINEAR
0.00000000000e+00,-1.63184902776e-01
0.00000000000e+00,-1.14896085791e-02
1.01336000000e+07,0.00000000000e+00
1.43925749897e+08,1.51695294197e-01
*ELEMENT,TYPE=SPRINGA,ELSET=E674
674,674,675
*SPRING,ELSET=E674,NONLINEAR
0.00000000000e+00,-3.26299272935e-01
0.00000000000e+00,-2.29698252240e-02
1.01315000000e+07,0.00000000000e+00
1.43923649897e+08,3.03329447711e-01
*ELEMENT,TYPE=SPRINGA,ELSET=E675
675,675,676
*SPRING,ELSET=E675,NONLINEAR
0.00000000000e+00,-3.26201927698e-01
0.00000000000e+00,-2.29570730540e-02
1.01287000000e+07,0.00000000000e+00
1.43920849897e+08,3.03244854644e-01
*ELEMENT,TYPE=SPRINGA,ELSET=E676
676,676,677
*SPRING,ELSET=E676,NONLINEAR
0.00000000000e+00,-1.63066076384e-01
0.00000000000e+00,-1.14739746523e-02
1.01267000000e+07,0.00000000000e+00
1.43918849897e+08,1.51592101731e-01
*ELEMENT,TYPE=SPRINGA,ELSET=E677
677,677,678
*SPRING,ELSET=E677,NONLINEAR
0.00000000000e+00,-1.63042302151e-01
0.00000000000e+00,-1.14708273608e-02
1.01253000000e+07,0.00000000000e+00
1.43917449897e+08,1.51571474790e-01
*ELEMENT,TYPE=SPRINGA,ELSET=E678
678,678,679
*SPRING,ELSET=E678,NONLINEAR
0.00000000000e+00,-3.26016763353e-01
0.00000000000e+00,-2.29326698615e-02
1.01233000000e+07,0.00000000000e+00
1.43915449897e+08,3.03084093492e-01
*ELEMENT,TYPE=SPRINGA,ELSET=E679
679,679,680
*SPRING,ELSET=E679,NONLINEAR
0.00000000000e+00,-3.25923101620e-01
0.00000000000e+00,-2.29203968698e-02
1.01206000000e+07,0.00000000000e+00
1.43912749897e+08,3.03002704751e-01
*ELEMENT,TYPE=SPRINGA,ELSET=E680
680,680,681
*SPRING,ELSET=E680,NONLINEAR
0.00000000000e+00,-1.62928034961e-01
0.00000000000e+00,-1.14558416446e-02
1.01187000000e+07,0.00000000000e+00
1.43910849897e+08,1.51472193316e-01
*ELEMENT,TYPE=SPRINGA,ELSET=E681
681,681,682
*SPRING,ELSET=E681,NONLINEAR
0.00000000000e+00,-1.62905233075e-01
0.00000000000e+00,-1.14528702667e-02
1.01174000000e+07,0.00000000000e+00
1.43909549897e+08,1.51452362808e-01
*ELEMENT,TYPE=SPRINGA,ELSET=E682
682,682,683
*SPRING,ELSET=E682,NONLINEAR
0.00000000000e+00,-3.25745314645e-01
0.00000000000e+00,-2.28971617051e-02
1.01155000000e+07,0.00000000000e+00
1.43907649897e+08,3.02848152940e-01
*ELEMENT,TYPE=SPRINGA,ELSET=E683
683,683,684
*SPRING,ELSET=E683,NONLINEAR
0.00000000000e+00,-3.25655333963e-01
0.00000000000e+00,-2.28853666302e-02
1.01129000000e+07,0.00000000000e+00
1.43905049897e+08,3.02769967333e-01
*ELEMENT,TYPE=SPRINGA,ELSET=E684
684,684,685
*SPRING,ELSET=E684,NONLINEAR
0.00000000000e+00,-1.62795408606e-01
0.00000000000e+00,-1.14384179748e-02
1.01110000000e+07,0.00000000000e+00
1.43903149897e+08,1.51356990631e-01
*ELEMENT,TYPE=SPRINGA,ELSET=E685
685,685,686
*SPRING,ELSET=E685,NONLINEAR
0.00000000000e+00,-1.62622830479e-01
0.00000000000e+00,-1.14157846419e-02
1.01010000000e+07,0.00000000000e+00
1.43893149897e+08,1.51207045837e-01
*ELEMENT,TYPE=SPRINGA,ELSET=E686
686,686,687
*SPRING,ELSET=E686,NONLINEAR
0.00000000000e+00,-3.25186144448e-01
0.00000000000e+00,-2.28236090102e-02
1.00992000000e+07,0.00000000000e+00
1.43891349897e+08,3.02362535437e-01
*ELEMENT,TYPE=SPRINGA,ELSET=E687
687,687,688
*SPRING,ELSET=E687,NONLINEAR
0.00000000000e+00,-3.25104429499e-01
0.00000000000e+00,-2.28130418302e-02
1.00969000000e+07,0.00000000000e+00
1.43889049897e+08,3.02291387669e-01
*ELEMENT,TYPE=SPRINGA,ELSET=E688
688,688,689
*SPRING,ELSET=E688,NONLINEAR
0.00000000000e+00,-1.62522943782e-01
0.00000000000e+00,-1.14026814953e-02
1.00952000000e+07,0.00000000000e+00
1.43887349897e+08,1.51120262287e-01
*ELEMENT,TYPE=SPRINGA,ELSET=E689
689,689,690
*SPRING,ELSET=E689,NONLINEAR
0.00000000000e+00,-1.62502999076e-01
0.00000000000e+00,-1.14000219886e-02
1.00940000000e+07,0.00000000000e+00
1.43886149897e+08,1.51102977088e-01
*ELEMENT,TYPE=SPRINGA,ELSET=E690
690,690,691
*SPRING,ELSET=E690,NONLINEAR
0.00000000000e+00,-3.24949391442e-01
0.00000000000e+00,-2.27927129114e-02
1.00924000000e+07,0.00000000000e+00
1.43884549897e+08,3.02156678530e-01
*ELEMENT,TYPE=SPRINGA,ELSET=E691
691,691,692
*SPRING,ELSET=E691,NONLINEAR
0.00000000000e+00,-3.24871124596e-01
0.00000000000e+00,-2.27823941913e-02
1.00901000000e+07,0.00000000000e+00
1.43882249897e+08,3.02088730405e-01
*ELEMENT,TYPE=SPRINGA,ELSET=E692
692,692,693
*SPRING,ELSET=E692,NONLINEAR
0.00000000000e+00,-1.62407658796e-01
0.00000000000e+00,-1.13875609190e-02
1.00885000000e+07,0.00000000000e+00
1.43880649897e+08,1.51020097877e-01
*ELEMENT,TYPE=SPRINGA,ELSET=E693
693,693,694
*SPRING,ELSET=E693,NONLINEAR
0.00000000000e+00,-1.62388683898e-01
0.00000000000e+00,-1.13850759967e-02
1.00874000000e+07,0.00000000000e+00
1.43879549897e+08,1.51003607901e-01
*ELEMENT,TYPE=SPRINGA,ELSET=E694
694,694,695
*SPRING,ELSET=E694,NONLINEAR
0.00000000000e+00,-3.24723217769e-01
0.00000000000e+00,-2.27629976109e-02
1.00858000000e+07,0.00000000000e+00
1.43877949897e+08,3.01960220158e-01
*ELEMENT,TYPE=SPRINGA,ELSET=E695
695,695,696
*SPRING,ELSET=E695,NONLINEAR
0.00000000000e+00,-3.24648848665e-01
0.00000000000e+00,-2.27533779827e-02
1.00837000000e+07,0.00000000000e+00
1.43875849897e+08,3.01895470683e-01
*ELEMENT,TYPE=SPRINGA,ELSET=E696
696,696,697
*SPRING,ELSET=E696,NONLINEAR
0.00000000000e+00,-1.62297774435e-01
0.00000000000e+00,-1.13731428160e-02
1.00821000000e+07,0.00000000000e+00
1.43874249897e+08,1.50924631618e-01
*ELEMENT,TYPE=SPRINGA,ELSET=E697
697,697,698
*SPRING,ELSET=E697,NONLINEAR
0.00000000000e+00,-1.62279768773e-01
0.00000000000e+00,-1.13708321606e-02
1.00811000000e+07,0.00000000000e+00
1.43873249897e+08,1.50908936612e-01
*ELEMENT,TYPE=SPRINGA,ELSET=E698
698,698,699
*SPRING,ELSET=E698,NONLINEAR
0.00000000000e+00,-3.24496100942e-01
0.00000000000e+00,-2.27332342607e-02
1.00792000000e+07,0.00000000000e+00
1.43871349897e+08,3.01762866681e-01
*ELEMENT,TYPE=SPRINGA,ELSET=E699
699,699,700
*SPRING,ELSET=E699,NONLINEAR
0.00000000000e+00,-3.24425596474e-01
0.00000000000e+00,-2.27241008813e-02
1.00772000000e+07,0.00000000000e+00
1.43869349897e+08,3.01701495593e-01
*ELEMENT,TYPE=SPRINGA,ELSET=E700
700,700,701
*SPRING,ELSET=E700,NONLINEAR
0.00000000000e+00,-1.62187584538e-01
0.00000000000e+00,-1.13587118088e-02
1.00757000000e+07,0.00000000000e+00
1.43867849897e+08,1.50828872730e-01
*ELEMENT,TYPE=SPRINGA,ELSET=E701
701,701,702
*SPRING,ELSET=E701,NONLINEAR
0.00000000000e+00,-1.62170483195e-01
0.00000000000e+00,-1.13564658447e-02
1.00747000000e+07,0.00000000000e+00
1.43866849897e+08,1.50814017350e-01
*ELEMENT,TYPE=SPRINGA,ELSET=E702
702,702,703
*SPRING,ELSET=E702,NONLINEAR
0.00000000000e+00,-3.24292316684e-01
0.00000000000e+00,-2.27065900534e-02
1.00733000000e+07,0.00000000000e+00
1.43865449897e+08,3.01585726631e-01
*ELEMENT,TYPE=SPRINGA,ELSET=E703
703,703,704
*SPRING,ELSET=E703,NONLINEAR
0.00000000000e+00,-3.24225480354e-01
0.00000000000e+00,-2.26979280379e-02
1.00714000000e+07,0.00000000000e+00
1.43863549897e+08,3.01527552317e-01
*ELEMENT,TYPE=SPRINGA,ELSET=E704
704,704,705
*SPRING,ELSET=E704,NONLINEAR
0.00000000000e+00,-1.62088890796e-01
0.00000000000e+00,-1.13458274569e-02
1.00700000000e+07,0.00000000000e+00
1.43862149897e+08,1.50743063339e-01
*ELEMENT,TYPE=SPRINGA,ELSET=E705
705,705,706
*SPRING,ELSET=E705,NONLINEAR
0.00000000000e+00,-1.62072645002e-01
0.00000000000e+00,-1.13436425588e-02
1.00690000000e+07,0.00000000000e+00
1.43861149897e+08,1.50729002443e-01
*ELEMENT,TYPE=SPRINGA,ELSET=E706
706,706,707
*SPRING,ELSET=E706,NONLINEAR
0.00000000000e+00,-3.24099319708e-01
0.00000000000e+00,-2.26813438451e-02
1.00677000000e+07,0.00000000000e+00
1.43859849897e+08,3.01417975863e-01
*ELEMENT,TYPE=SPRINGA,ELSET=E707
707,707,708
*SPRING,ELSET=E707,NONLINEAR
0.00000000000e+00,-3.24036149820e-01
0.00000000000e+00,-2.26731523387e-02
1.00659000000e+07,0.00000000000e+00
1.43858049897e+08,3.01362997481e-01
*ELEMENT,TYPE=SPRINGA,ELSET=E708
708,708,709
*SPRING,ELSET=E708,NONLINEAR
0.00000000000e+00,-1.61995588779e-01
0.00000000000e+00,-1.13336413064e-02
1.00646000000e+07,0.00000000000e+00
1.43856749897e+08,1.50661947473e-01
*ELEMENT,TYPE=SPRINGA,ELSET=E709
709,709,710
*SPRING,ELSET=E709,NONLINEAR
0.00000000000e+00,-1.61980310768e-01
0.00000000000e+00,-1.13316299243e-02
1.00637000000e+07,0.00000000000e+00
1.43855849897e+08,1.50648680844e-01
*ELEMENT,TYPE=SPRINGA,ELSET=E710
710,710,711
*SPRING,ELSET=E710,NONLINEAR
0.00000000000e+00,-1.62467087512e-01
0.00000000000e+00,-1.13647379488e-02
1.00628000000e+07,0.00000000000e+00
1.43854949897e+08,1.51102349564e-01
*ELEMENT,TYPE=SPRINGA,ELSET=E711
711,711,712
*SPRING,ELSET=E711,NONLINEAR
0.00000000000e+00,-1.61444872431e-01
0.00000000000e+00,-1.12920848076e-02
1.00617000000e+07,0.00000000000e+00
1.43853849897e+08,1.50152787624e-01
*ELEMENT,TYPE=SPRINGA,ELSET=E712
712,712,713
*SPRING,ELSET=E712,NONLINEAR
0.00000000000e+00,-3.23847783192e-01
0.00000000000e+00,-2.26484566339e-02
1.00604000000e+07,0.00000000000e+00
1.43852549897e+08,3.01199326558e-01
*ELEMENT,TYPE=SPRINGA,ELSET=E713
713,713,714
*SPRING,ELSET=E713,NONLINEAR
0.00000000000e+00,-1.61902838340e-01
0.00000000000e+00,-1.13214998163e-02
1.00592000000e+07,0.00000000000e+00
1.43851349897e+08,1.50581338524e-01
*ELEMENT,TYPE=SPRINGA,ELSET=E714
714,714,715
*SPRING,ELSET=E714,NONLINEAR
0.00000000000e+00,-1.61888576020e-01
0.00000000000e+00,-1.13196651261e-02
1.00584000000e+07,0.00000000000e+00
1.43850549897e+08,1.50568910894e-01
*ELEMENT,TYPE=SPRINGA,ELSET=E715
715,715,716
*SPRING,ELSET=E715,NONLINEAR
0.00000000000e+00,-3.23736452506e-01
0.00000000000e+00,-2.26339726420e-02
1.00572000000e+07,0.00000000000e+00
1.43849349897e+08,3.01102479864e-01
*ELEMENT,TYPE=SPRINGA,ELSET=E716
716,716,717
*SPRING,ELSET=E716,NONLINEAR
0.00000000000e+00,-3.23680805333e-01
0.00000000000e+00,-2.26267335321e-02
1.00556000000e+07,0.00000000000e+00
1.43847749897e+08,3.01054071801e-01
*ELEMENT,TYPE=SPRINGA,ELSET=E717
717,717,718
*SPRING,ELSET=E717,NONLINEAR
0.00000000000e+00,-1.61820597943e-01
0.00000000000e+00,-1.13107267510e-02
1.00544000000e+07,0.00000000000e+00
1.43846549897e+08,1.50509871192e-01
*ELEMENT,TYPE=SPRINGA,ELSET=E718
718,718,719
*SPRING,ELSET=E718,NONLINEAR
0.00000000000e+00,-1.61807190010e-01
0.00000000000e+00,-1.13089525874e-02
1.00536000000e+07,0.00000000000e+00
1.43845749897e+08,1.50498237423e-01
*ELEMENT,TYPE=SPRINGA,ELSET=E719
719,719,720
*SPRING,ELSET=E719,NONLINEAR
0.00000000000e+00,-3.23576358554e-01
0.00000000000e+00,-2.26129463049e-02
1.00525000000e+07,0.00000000000e+00
1.43844649897e+08,3.00963412249e-01
*ELEMENT,TYPE=SPRINGA,ELSET=E720
720,720,721
*SPRING,ELSET=E720,NONLINEAR
0.00000000000e+00,-2.15687902658e-01
0.00000000000e+00,-1.50714110089e-02
1.00512000000e+07,0.00000000000e+00
1.43843349897e+08,2.00616491649e-01
*ELEMENT,TYPE=SPRINGA,ELSET=E721
721,721,722
*SPRING,ELSET=E721,NONLINEAR
0.00000000000e+00,-2.15561421309e-01
0.00000000000e+00,-1.50549064213e-02
1.00457000000e+07,0.00000000000e+00
1.43837849897e+08,2.00506514888e-01
*ELEMENT,TYPE=SPRINGA,ELSET=E722
722,722,723
*SPRING,ELSET=E722,NONLINEAR
0.00000000000e+00,-6.38027073118e-02
0.00000000000e+00,-4.45580341926e-03
1.00452000000e+07,0.00000000000e+00
1.43837349897e+08,5.93469038926e-02
*ELEMENT,TYPE=SPRINGA,ELSET=E723
723,723,724
*SPRING,ELSET=E723,NONLINEAR
0.00000000000e+00,-4.88735499193e-02
0.00000000000e+00,-3.73940455352e-03
1.10848000000e+07,0.00000000000e+00
1.44876949897e+08,4.51341453658e-02
*ELEMENT,TYPE=SPRINGA,ELSET=E724
724,724,725
*SPRING,ELSET=E724,NONLINEAR
0.00000000000e+00,-1.79639203571e-01
0.00000000000e+00,-1.37416607770e-02
1.10823000000e+07,0.00000000000e+00
1.44874449897e+08,1.65897542794e-01
*ELEMENT,TYPE=SPRINGA,ELSET=E725
725,725,726
*SPRING,ELSET=E725,NONLINEAR
0.00000000000e+00,-8.33293152537e-02
0.00000000000e+00,-6.37286279966e-03
1.10795000000e+07,0.00000000000e+00
1.44871649897e+08,7.69564524540e-02
*ELEMENT,TYPE=SPRINGA,ELSET=E726
726,726,727
*SPRING,ELSET=E726,NONLINEAR
0.00000000000e+00,-4.13396483240e-02
0.00000000000e+00,-3.52321192555e-03
1.24649000000e+07,0.00000000000e+00
1.46257049897e+08,3.78164363984e-02
*ELEMENT,TYPE=SPRINGA,ELSET=E727
727,727,728
*SPRING,ELSET=E727,NONLINEAR
0.00000000000e+00,-1.92510325731e+00
0.00000000000e+00,-1.63715943680e-01
1.24356000000e+07,0.00000000000e+00
1.46227749897e+08,1.76138731363e+00
*ELEMENT,TYPE=SPRINGA,ELSET=E728
728,729,160
*SPRING,ELSET=E728,NONLINEAR
0.00000000000e+00,-5.66003343863e-01
0.00000000000e+00,-6.20392889411e-03
1.48274000000e+06,0.00000000000e+00
1.35274889897e+08,5.59799414969e-01
*ELEMENT,TYPE=SPRINGA,ELSET=E729
729,444,730
*SPRING,ELSET=E729,NONLINEAR
0.00000000000e+00,-5.62490839579e-01
0.00000000000e+00,-6.52475698003e-03
1.57017000000e+06,0.00000000000e+00
1.35362319897e+08,5.55966082599e-01
*ELEMENT,TYPE=SPRINGA,ELSET=E1001
1001,1001,1002
*SPRING,ELSET=E1001,NONLINEAR
0.00000000000e+00,-2.89276079839e+00
0.00000000000e+00,-1.85218809039e-01
3.44901000000e+06,0.00000000000e+00
5.38668884279e+07,2.70754198936e+00
*ELEMENT,TYPE=SPRINGA,ELSET=E1002
1002,1002,1003
*SPRING,ELSET=E1002,NONLINEAR
0.00000000000e+00,-1.11843924111e-01
0.00000000000e+00,-7.17776033402e-03
3.45754000000e+06,0.00000000000e+00
5.38754184279e+07,1.04666163777e-01
*ELEMENT,TYPE=SPRINGA,ELSET=E1003
1003,1003,1004
*SPRING,ELSET=E1003,NONLINEAR
0.00000000000e+00,-6.22980912446e-02
0.00000000000e+00,-3.79637792376e-03
3.27179000000e+06,0.00000000000e+00
5.36896684279e+07,5.85017133209e-02
*ELEMENT,TYPE=SPRINGA,ELSET=E1004
1004,1004,1005
*SPRING,ELSET=E1004,NONLINEAR
0.00000000000e+00,-4.47533301790e-01
0.00000000000e+00,-2.72803332082e-02
3.27283000000e+06,0.00000000000e+00
5.36907084279e+07,4.20252968582e-01
*ELEMENT,TYPE=SPRINGA,ELSET=E1005
1005,1005,1006
*SPRING,ELSET=E1005,NONLINEAR
0.00000000000e+00,-5.59789363209e-01
0.00000000000e+00,-3.41433053530e-02
3.27489000000e+06,0.00000000000e+00
5.36927684279e+07,5.25646057856e-01
*ELEMENT,TYPE=SPRINGA,ELSET=E1006
1006,1006,1007
*SPRING,ELSET=E1006,NONLINEAR
0.00000000000e+00,-5.60206390399e-01
0.00000000000e+00,-3.41912736925e-02
3.27719000000e+06,0.00000000000e+00
5.36950684279e+07,5.26015116707e-01
*ELEMENT,TYPE=SPRINGA,ELSET=E1007
1007,1007,1008
*SPRING,ELSET=E1007,NONLINEAR
0.00000000000e+00,-5.61148002096e-01
0.00000000000e+00,-3.42714100158e-02
3.27950000000e+06,0.00000000000e+00
5.36973784279e+07,5.26876592080e-01
*ELEMENT,TYPE=SPRINGA,ELSET=E1008
1008,1008,1009
*SPRING,ELSET=E1008,NONLINEAR
0.00000000000e+00,-6.74563858280e-01
0.00000000000e+00,-4.12963790087e-02
3.28783000000e+06,0.00000000000e+00
5.37057084279e+07,6.33267479271e-01
*ELEMENT,TYPE=SPRINGA,ELSET=E1009
1009,1009,1010
*SPRING,ELSET=E1009,NONLINEAR
0.00000000000e+00,-6.18899661452e-01
0.00000000000e+00,-3.79184007062e-02
3.29058000000e+06,0.00000000000e+00
5.37084584279e+07,5.80981260746e-01
*ELEMENT,TYPE=SPRINGA,ELSET=E1010
1010,1010,1011
*SPRING,ELSET=E1010,NONLINEAR
0.00000000000e+00,-6.19429443738e-01
0.00000000000e+00,-3.79795481179e-02
3.29323000000e+06,0.00000000000e+00
5.37111084279e+07,5.81449895620e-01
*ELEMENT,TYPE=SPRINGA,ELSET=E1011
1011,1011,1012
*SPRING,ELSET=E1011,NONLINEAR
0.00000000000e+00,-6.19963473016e-01
0.00000000000e+00,-3.80413273789e-02
3.29591000000e+06,0.00000000000e+00
5.37137884279e+07,5.81922145637e-01
*ELEMENT,TYPE=SPRINGA,ELSET=E1012
1012,1012,1013
*SPRING,ELSET=E1012,NONLINEAR
0.00000000000e+00,-6.76937634435e-01
0.00000000000e+00,-4.15706528799e-02
3.29873000000e+06,0.00000000000e+00
5.37166084279e+07,6.35366981555e-01
*ELEMENT,TYPE=SPRINGA,ELSET=E1013
1013,1013,1014
*SPRING,ELSET=E1013,NONLINEAR
0.00000000000e+00,-6.78902026379e-01
0.00000000000e+00,-4.17981487128e-02
3.30774000000e+06,0.00000000000e+00
5.37256184279e+07,6.37103877667e-01
*ELEMENT,TYPE=SPRINGA,ELSET=E1014
1014,1014,1015
*SPRING,ELSET=E1014,NONLINEAR
0.00000000000e+00,-6.22908453084e-01
0.00000000000e+00,-3.83825460292e-02
3.31066000000e+06,0.00000000000e+00
5.37285384279e+07,5.84525907055e-01
*ELEMENT,TYPE=SPRINGA,ELSET=E1015
1015,1015,1016
*SPRING,ELSET=E1015,NONLINEAR
0.00000000000e+00,-6.23468862357e-01
0.00000000000e+00,-3.84475651847e-02
3.31346000000e+06,0.00000000000e+00
5.37313384279e+07,5.85021297173e-01
*ELEMENT,TYPE=SPRINGA,ELSET=E1016
1016,1016,1017
*SPRING,ELSET=E1016,NONLINEAR
0.00000000000e+00,-6.24033551363e-01
0.00000000000e+00,-3.85132269950e-02
3.31629000000e+06,0.00000000000e+00
5.37341684279e+07,5.85520324368e-01
*ELEMENT,TYPE=SPRINGA,ELSET=E1017
1017,1017,1018
*SPRING,ELSET=E1017,NONLINEAR
0.00000000000e+00,-6.81412638482e-01
0.00000000000e+00,-4.20898056834e-02
3.31926000000e+06,0.00000000000e+00
5.37371384279e+07,6.39322832799e-01
*ELEMENT,TYPE=SPRINGA,ELSET=E1018
1018,1018,1019
*SPRING,ELSET=E1018,NONLINEAR
0.00000000000e+00,-6.83743352778e-01
0.00000000000e+00,-4.23614806030e-02
3.32996000000e+06,0.00000000000e+00
5.37478384279e+07,6.41381872175e-01
*ELEMENT,TYPE=SPRINGA,ELSET=E1019
1019,1019,1020
*SPRING,ELSET=E1019,NONLINEAR
0.00000000000e+00,-6.27380148405e-01
0.00000000000e+00,-3.89030979606e-02
3.33303000000e+06,0.00000000000e+00
5.37509084279e+07,5.88477050444e-01
*ELEMENT,TYPE=SPRINGA,ELSET=E1020
1020,1020,1021
*SPRING,ELSET=E1020,NONLINEAR
0.00000000000e+00,-6.27973245514e-01
0.00000000000e+00,-3.89724203779e-02
3.33600000000e+06,0.00000000000e+00
5.37538784279e+07,5.89000825136e-01
*ELEMENT,TYPE=SPRINGA,ELSET=E1021
1021,1021,1022
*SPRING,ELSET=E1021,NONLINEAR
0.00000000000e+00,-6.28570542038e-01
0.00000000000e+00,-3.90422808385e-02
3.33899000000e+06,0.00000000000e+00
5.37568684279e+07,5.89528261200e-01
*ELEMENT,TYPE=SPRINGA,ELSET=E1022
1022,1022,1023
*SPRING,ELSET=E1022,NONLINEAR
0.00000000000e+00,-6.86399348074e-01
0.00000000000e+00,-4.26717911746e-02
3.34213000000e+06,0.00000000000e+00
5.37600084279e+07,6.43727556899e-01
*ELEMENT,TYPE=SPRINGA,ELSET=E1023
1023,1023,1024
*SPRING,ELSET=E1023,NONLINEAR
0.00000000000e+00,-6.88572529039e-01
0.00000000000e+00,-4.29265100269e-02
3.35209000000e+06,0.00000000000e+00
5.37699684279e+07,6.45646019012e-01
*ELEMENT,TYPE=SPRINGA,ELSET=E1024
1024,1024,1025
*SPRING,ELSET=E1024,NONLINEAR
0.00000000000e+00,-6.31839444613e-01
0.00000000000e+00,-3.94253924152e-02
3.35533000000e+06,0.00000000000e+00
5.37732084279e+07,5.92414052198e-01
*ELEMENT,TYPE=SPRINGA,ELSET=E1025
1025,1025,1026
*SPRING,ELSET=E1025,NONLINEAR
0.00000000000e+00,-6.32463567221e-01
0.00000000000e+00,-3.94987409783e-02
3.35845000000e+06,0.00000000000e+00
5.37763284279e+07,5.92964826243e-01
*ELEMENT,TYPE=SPRINGA,ELSET=E1026
1026,1026,1027
*SPRING,ELSET=E1026,NONLINEAR
0.00000000000e+00,-6.33091925003e-01
0.00000000000e+00,-3.95726388971e-02
3.36159000000e+06,0.00000000000e+00
5.37794684279e+07,5.93519286106e-01
*ELEMENT,TYPE=SPRINGA,ELSET=E1027
1027,1027,1028
*SPRING,ELSET=E1027,NONLINEAR
0.00000000000e+00,-6.91367402105e-01
0.00000000000e+00,-4.32551504282e-02
3.36490000000e+06,0.00000000000e+00
5.37827784279e+07,6.48112251677e-01
*ELEMENT,TYPE=SPRINGA,ELSET=E1028
1028,1028,1029
*SPRING,ELSET=E1028,NONLINEAR
0.00000000000e+00,-6.93641190526e-01
0.00000000000e+00,-4.35232436526e-02
3.37531000000e+06,0.00000000000e+00
5.37931884279e+07,6.50117946873e-01
*ELEMENT,TYPE=SPRINGA,ELSET=E1029
1029,1029,1030
*SPRING,ELSET=E1029,NONLINEAR
0.00000000000e+00,-6.36518369175e-01
0.00000000000e+00,-3.99767167764e-02
3.37871000000e+06,0.00000000000e+00
5.37965884279e+07,5.96541652399e-01
*ELEMENT,TYPE=SPRINGA,ELSET=E1030
1030,1030,1031
*SPRING,ELSET=E1030,NONLINEAR
0.00000000000e+00,-6.37173726092e-01
0.00000000000e+00,-4.00541722811e-02
3.38198000000e+06,0.00000000000e+00
5.37998584279e+07,5.97119553811e-01
*ELEMENT,TYPE=SPRINGA,ELSET=E1031
1031,1031,1032
*SPRING,ELSET=E1031,NONLINEAR
0.00000000000e+00,-6.37833474154e-01
0.00000000000e+00,-4.01323075908e-02
3.38528000000e+06,0.00000000000e+00
5.38031584279e+07,5.97701166563e-01
*ELEMENT,TYPE=SPRINGA,ELSET=E1032
1032,1032,1033
*SPRING,ELSET=E1032,NONLINEAR
0.00000000000e+00,-6.96575623225e-01
0.00000000000e+00,-4.38703220239e-02
3.38874000000e+06,0.00000000000e+00
5.38066184279e+07,6.52705301201e-01
*ELEMENT,TYPE=SPRINGA,ELSET=E1033
1033,1033,1034
*SPRING,ELSET=E1033,NONLINEAR
0.00000000000e+00,-6.99250534658e-01
0.00000000000e+00,-4.41878024326e-02
3.40098000000e+06,0.00000000000e+00
5.38188584279e+07,6.55062732225e-01
*ELEMENT,TYPE=SPRINGA,ELSET=E1034
1034,1034,1035
*SPRING,ELSET=E1034,NONLINEAR
0.00000000000e+00,-6.41694988102e-01
0.00000000000e+00,-4.05905629968e-02
3.40455000000e+06,0.00000000000e+00
5.38224284279e+07,6.01104425105e-01
*ELEMENT,TYPE=SPRINGA,ELSET=E1035
1035,1035,1036
*SPRING,ELSET=E1035,NONLINEAR
0.00000000000e+00,-6.42383686131e-01
0.00000000000e+00,-4.06725844364e-02
3.40799000000e+06,0.00000000000e+00
5.38258684279e+07,6.01711101694e-01
*ELEMENT,TYPE=SPRINGA,ELSET=E1036
1036,1036,1037
*SPRING,ELSET=E1036,NONLINEAR
0.00000000000e+00,-6.43076698382e-01
0.00000000000e+00,-4.07551806193e-02
3.41145000000e+06,0.00000000000e+00
5.38293284279e+07,6.02321517762e-01
*ELEMENT,TYPE=SPRINGA,ELSET=E1037
1037,1037,1038
*SPRING,ELSET=E1037,NONLINEAR
0.00000000000e+00,-7.02333525408e-01
0.00000000000e+00,-4.45549575204e-02
3.41508000000e+06,0.00000000000e+00
5.38329584279e+07,6.57778567888e-01
*ELEMENT,TYPE=SPRINGA,ELSET=E1038
1038,1038,1039
*SPRING,ELSET=E1038,NONLINEAR
0.00000000000e+00,-7.04812536614e-01
0.00000000000e+00,-4.48512440912e-02
3.42642000000e+06,0.00000000000e+00
5.38442984279e+07,6.59961292523e-01
*ELEMENT,TYPE=SPRINGA,ELSET=E1039
1039,1039,1040
*SPRING,ELSET=E1039,NONLINEAR
0.00000000000e+00,-6.46826620309e-01
0.00000000000e+00,-4.12032231528e-02
3.43015000000e+06,0.00000000000e+00
5.38480284279e+07,6.05623397156e-01
*ELEMENT,TYPE=SPRINGA,ELSET=E1040
1040,1040,1041
*SPRING,ELSET=E1040,NONLINEAR
0.00000000000e+00,-6.47547014379e-01
0.00000000000e+00,-4.12895313097e-02
3.43374000000e+06,0.00000000000e+00
5.38516184279e+07,6.06257483070e-01
*ELEMENT,TYPE=SPRINGA,ELSET=E1041
1041,1041,1042
*SPRING,ELSET=E1041,NONLINEAR
0.00000000000e+00,-6.48271763715e-01
0.00000000000e+00,-4.13764273601e-02
3.43735000000e+06,0.00000000000e+00
5.38552284279e+07,6.06895336355e-01
*ELEMENT,TYPE=SPRINGA,ELSET=E1042
1042,1042,1043
*SPRING,ELSET=E1042,NONLINEAR
0.00000000000e+00,-7.08040376123e-01
0.00000000000e+00,-4.52379705208e-02
3.44115000000e+06,0.00000000000e+00
5.38590284279e+07,6.62802405603e-01
*ELEMENT,TYPE=SPRINGA,ELSET=E1043
1043,1043,1044
*SPRING,ELSET=E1043,NONLINEAR
0.00000000000e+00,-7.10618133321e-01
0.00000000000e+00,-4.55481315892e-02
3.45293000000e+06,0.00000000000e+00
5.38708084279e+07,6.65070001732e-01
*ELEMENT,TYPE=SPRINGA,ELSET=E1044
1044,1044,1045
*SPRING,ELSET=E1044,NONLINEAR
0.00000000000e+00,-6.52181987729e-01
0.00000000000e+00,-4.18466516679e-02
3.45682000000e+06,0.00000000000e+00
5.38746984279e+07,6.10335336062e-01
*ELEMENT,TYPE=SPRINGA,ELSET=E1045
1045,1045,1046
*SPRING,ELSET=E1045,NONLINEAR
0.00000000000e+00,-6.52934395517e-01
0.00000000000e+00,-4.19374582421e-02
3.46057000000e+06,0.00000000000e+00
5.38784484279e+07,6.10996937275e-01
*ELEMENT,TYPE=SPRINGA,ELSET=E1046
1046,1046,1047
*SPRING,ELSET=E1046,NONLINEAR
0.00000000000e+00,-6.53691201613e-01
0.00000000000e+00,-4.20288667296e-02
3.46434000000e+06,0.00000000000e+00
5.38822184279e+07,6.11662334884e-01
*ELEMENT,TYPE=SPRINGA,ELSET=E1047
1047,1047,1048
*SPRING,ELSET=E1047,NONLINEAR
0.00000000000e+00,-7.13985676112e-01
0.00000000000e+00,-4.59545767153e-02
3.46830000000e+06,0.00000000000e+00
5.38861784279e+07,6.68031099397e-01
*ELEMENT,TYPE=SPRINGA,ELSET=E1048
1048,1048,1049
*SPRING,ELSET=E1048,NONLINEAR
0.00000000000e+00,-7.16997902308e-01
0.00000000000e+00,-4.63195892565e-02
3.48205000000e+06,0.00000000000e+00
5.38999284279e+07,6.70678313052e-01
*ELEMENT,TYPE=SPRINGA,ELSET=E1049
1049,1049,1050
*SPRING,ELSET=E1049,NONLINEAR
0.00000000000e+00,-6.58065574804e-01
0.00000000000e+00,-4.25587984839e-02
3.48611000000e+06,0.00000000000e+00
5.39039884279e+07,6.15506776320e-01
*ELEMENT,TYPE=SPRINGA,ELSET=E1050
1050,1050,1051
*SPRING,ELSET=E1050,NONLINEAR
0.00000000000e+00,-6.58852074287e-01
0.00000000000e+00,-4.26544744896e-02
3.49003000000e+06,0.00000000000e+00
5.39079084279e+07,6.16197599797e-01
*ELEMENT,TYPE=SPRINGA,ELSET=E1051
1051,1051,1052
*SPRING,ELSET=E1051,NONLINEAR
0.00000000000e+00,-6.59642897276e-01
0.00000000000e+00,-4.27506455831e-02
3.49396000000e+06,0.00000000000e+00
5.39118384279e+07,6.16892251692e-01
*ELEMENT,TYPE=SPRINGA,ELSET=E1052
1052,1052,1053
*SPRING,ELSET=E1052,NONLINEAR
0.00000000000e+00,-7.20517489012e-01
0.00000000000e+00,-4.67475932332e-02
3.49810000000e+06,0.00000000000e+00
5.39159784279e+07,6.73769895779e-01
*ELEMENT,TYPE=SPRINGA,ELSET=E1053
1053,1053,1054
*SPRING,ELSET=E1053,NONLINEAR
0.00000000000e+00,-7.23296604652e-01
0.00000000000e+00,-4.70868099747e-02
3.51077000000e+06,0.00000000000e+00
5.39286484279e+07,6.76209794678e-01
*ELEMENT,TYPE=SPRINGA,ELSET=E1054
1054,1054,1055
*SPRING,ELSET=E1054,NONLINEAR
0.00000000000e+00,-6.63873406952e-01
0.00000000000e+00,-4.32670217770e-02
3.51500000000e+06,0.00000000000e+00
5.39328784279e+07,6.20606385175e-01
*ELEMENT,TYPE=SPRINGA,ELSET=E1055
1055,1055,1056
*SPRING,ELSET=E1055,NONLINEAR
0.00000000000e+00,-6.64692369678e-01
0.00000000000e+00,-4.33672843114e-02
3.51907000000e+06,0.00000000000e+00
5.39369484279e+07,6.21325085366e-01
*ELEMENT,TYPE=SPRINGA,ELSET=E1056
1056,1056,1057
*SPRING,ELSET=E1056,NONLINEAR
0.00000000000e+00,-6.65515824854e-01
0.00000000000e+00,-4.34681793646e-02
3.52316000000e+06,0.00000000000e+00
5.39410384279e+07,6.22047645490e-01
*ELEMENT,TYPE=SPRINGA,ELSET=E1057
1057,1057,1058
*SPRING,ELSET=E1057,NONLINEAR
0.00000000000e+00,-7.26961523764e-01
0.00000000000e+00,-4.75356679807e-02
3.52746000000e+06,0.00000000000e+00
5.39453384279e+07,6.79425855783e-01
*ELEMENT,TYPE=SPRINGA,ELSET=E1058
1058,1058,1059
*SPRING,ELSET=E1058,NONLINEAR
0.00000000000e+00,-6.07562837658e-01
0.00000000000e+00,-3.98621052960e-02
3.54018000000e+06,0.00000000000e+00
5.39580584279e+07,5.67700732362e-01
*ELEMENT,TYPE=SPRINGA,ELSET=E1059
1059,1059,1060
*SPRING,ELSET=E1059,NONLINEAR
0.00000000000e+00,-6.08827596437e-01
0.00000000000e+00,-3.99853575271e-02
3.54400000000e+06,0.00000000000e+00
5.39618784279e+07,5.68842238909e-01
*ELEMENT,TYPE=SPRINGA,ELSET=E1060
1060,1060,1061
*SPRING,ELSET=E1060,NONLINEAR
0.00000000000e+00,-6.09530546667e-01
0.00000000000e+00,-4.00720479165e-02
3.54784000000e+06,0.00000000000e+00
5.39657184279e+07,5.69458498751e-01
*ELEMENT,TYPE=SPRINGA,ELSET=E1061
1061,1061,1062
*SPRING,ELSET=E1061,NONLINEAR
0.00000000000e+00,-5.49181489487e-01
0.00000000000e+00,-3.61393463614e-02
3.55150000000e+06,0.00000000000e+00
5.39693784279e+07,5.13042143125e-01
*ELEMENT,TYPE=SPRINGA,ELSET=E1062
1062,1062,1063
*SPRING,ELSET=E1062,NONLINEAR
0.00000000000e+00,-8.24264644072e-02
0.00000000000e+00,-5.42699574854e-03
3.55350000000e+06,0.00000000000e+00
5.39713784279e+07,7.69994686587e-02
*ELEMENT,TYPE=SPRINGA,ELSET=E1063
1063,1063,1064
*SPRING,ELSET=E1063,NONLINEAR
0.00000000000e+00,-3.45080362883e-02
0.00000000000e+00,-2.00803293593e-03
3.11510000000e+06,0.00000000000e+00
5.35329784279e+07,3.25000033524e-02
*ELEMENT,TYPE=SPRINGA,ELSET=E1064
1064,1064,1065
*SPRING,ELSET=E1064,NONLINEAR
0.00000000000e+00,-1.59267843489e-01
0.00000000000e+00,-9.26784337102e-03
3.11510000000e+06,0.00000000000e+00
5.35329784279e+07,1.50000000118e-01
*ELEMENT,TYPE=SPRINGA,ELSET=E1065
1065,1065,1066
*SPRING,ELSET=E1065,NONLINEAR
0.00000000000e+00,-5.30892856785e-02
0.00000000000e+00,-3.08928138643e-03
3.11510000000e+06,0.00000000000e+00
5.35329784279e+07,5.00000042921e-02
*ELEMENT,TYPE=SPRINGA,ELSET=E1066
1066,1066,1067
*SPRING,ELSET=E1066,NONLINEAR
0.00000000000e+00,-5.73051868721e-02
0.00000000000e+00,-3.56831269772e-03
3.34792000000e+06,0.00000000000e+00
5.37657984279e+07,5.37368741744e-02
*ELEMENT,TYPE=SPRINGA,ELSET=E1067
1067,1067,1068
*SPRING,ELSET=E1067,NONLINEAR
0.00000000000e+00,-6.30024044042e-01
0.00000000000e+00,-3.92124624194e-02
3.34626000000e+06,0.00000000000e+00
5.37641384279e+07,5.90811581623e-01
*ELEMENT,TYPE=SPRINGA,ELSET=E1068
1068,1068,1069
*SPRING,ELSET=E1068,NONLINEAR
0.00000000000e+00,-5.72221953965e-01
0.00000000000e+00,-3.55859360378e-02
3.34336000000e+06,0.00000000000e+00
5.37612384279e+07,5.36636017927e-01
*ELEMENT,TYPE=SPRINGA,ELSET=E1069
1069,1069,1070
*SPRING,ELSET=E1069,NONLINEAR
0.00000000000e+00,-5.71723073335e-01
0.00000000000e+00,-3.55274836006e-02
3.34061000000e+06,0.00000000000e+00
5.37584884279e+07,5.36195589735e-01
*ELEMENT,TYPE=SPRINGA,ELSET=E1070
1070,1070,1071
*SPRING,ELSET=E1070,NONLINEAR
0.00000000000e+00,-5.71227496550e-01
0.00000000000e+00,-3.54695803673e-02
3.33789000000e+06,0.00000000000e+00
5.37557684279e+07,5.35757916183e-01
*ELEMENT,TYPE=SPRINGA,ELSET=E1071
1071,1071,1072
*SPRING,ELSET=E1071,NONLINEAR
0.00000000000e+00,-5.70735007720e-01
0.00000000000e+00,-3.54120126133e-02
3.33518000000e+06,0.00000000000e+00
5.37530584279e+07,5.35322995107e-01
*ELEMENT,TYPE=SPRINGA,ELSET=E1072
1072,1072,1073
*SPRING,ELSET=E1072,NONLINEAR
0.00000000000e+00,-6.84236327740e-01
0.00000000000e+00,-4.24190102476e-02
3.33222000000e+06,0.00000000000e+00
5.37500984279e+07,6.41817317492e-01
*ELEMENT,TYPE=SPRINGA,ELSET=E1073
1073,1073,1074
*SPRING,ELSET=E1073,NONLINEAR
0.00000000000e+00,-6.82153649115e-01
0.00000000000e+00,-4.21760687569e-02
3.32266000000e+06,0.00000000000e+00
5.37405384279e+07,6.39977580358e-01
*ELEMENT,TYPE=SPRINGA,ELSET=E1074
1074,1074,1075
*SPRING,ELSET=E1074,NONLINEAR
0.00000000000e+00,-6.24707583532e-01
0.00000000000e+00,-3.85915849036e-02
3.31966000000e+06,0.00000000000e+00
5.37375384279e+07,5.86115998628e-01
*ELEMENT,TYPE=SPRINGA,ELSET=E1075
1075,1075,1076
*SPRING,ELSET=E1075,NONLINEAR
0.00000000000e+00,-6.24138000792e-01
0.00000000000e+00,-3.85253403895e-02
3.31681000000e+06,0.00000000000e+00
5.37346884279e+07,5.85612660402e-01
*ELEMENT,TYPE=SPRINGA,ELSET=E1076
1076,1076,1077
*SPRING,ELSET=E1076,NONLINEAR
0.00000000000e+00,-6.23572586968e-01
0.00000000000e+00,-3.84596241824e-02
3.31398000000e+06,0.00000000000e+00
5.37318584279e+07,5.85112962785e-01
*ELEMENT,TYPE=SPRINGA,ELSET=E1077
1077,1077,1078
*SPRING,ELSET=E1077,NONLINEAR
0.00000000000e+00,-6.79620978379e-01
0.00000000000e+00,-4.18815846307e-02
3.31104000000e+06,0.00000000000e+00
5.37289184279e+07,6.37739393749e-01
*ELEMENT,TYPE=SPRINGA,ELSET=E1078
1078,1078,1079
*SPRING,ELSET=E1078,NONLINEAR
0.00000000000e+00,-6.77640129337e-01
0.00000000000e+00,-4.16519168163e-02
3.30195000000e+06,0.00000000000e+00
5.37198284279e+07,6.35988212521e-01
*ELEMENT,TYPE=SPRINGA,ELSET=E1079
1079,1079,1080
*SPRING,ELSET=E1079,NONLINEAR
0.00000000000e+00,-6.20602346451e-01
0.00000000000e+00,-3.81152307142e-02
3.29911000000e+06,0.00000000000e+00
5.37169884279e+07,5.82487115737e-01
*ELEMENT,TYPE=SPRINGA,ELSET=E1080
1080,1080,1081
*SPRING,ELSET=E1080,NONLINEAR
0.00000000000e+00,-6.20063452874e-01
0.00000000000e+00,-3.80528799042e-02
3.29641000000e+06,0.00000000000e+00
5.37142884279e+07,5.82010572969e-01
*ELEMENT,TYPE=SPRINGA,ELSET=E1081
1081,1081,1082
*SPRING,ELSET=E1081,NONLINEAR
0.00000000000e+00,-6.19528696009e-01
0.00000000000e+00,-3.79910472174e-02
3.29373000000e+06,0.00000000000e+00
5.37116084279e+07,5.81537648792e-01
*ELEMENT,TYPE=SPRINGA,ELSET=E1082
1082,1082,1083
*SPRING,ELSET=E1082,NONLINEAR
0.00000000000e+00,-6.75767512170e-01
0.00000000000e+00,-4.14069187371e-02
3.29095000000e+06,0.00000000000e+00
5.37088284279e+07,6.34360593433e-01
*ELEMENT,TYPE=SPRINGA,ELSET=E1083
1083,1083,1084
*SPRING,ELSET=E1083,NONLINEAR
0.00000000000e+00,-6.73130296370e-01
0.00000000000e+00,-4.11310672935e-02
3.28124000000e+06,0.00000000000e+00
5.36991184279e+07,6.31999229076e-01
*ELEMENT,TYPE=SPRINGA,ELSET=E1084
1084,1084,1085
*SPRING,ELSET=E1084,NONLINEAR
0.00000000000e+00,-6.16502001786e-01
0.00000000000e+00,-3.76419528400e-02
3.27856000000e+06,0.00000000000e+00
5.36964384279e+07,5.78860048946e-01
*ELEMENT,TYPE=SPRINGA,ELSET=E1085
1085,1085,1086
*SPRING,ELSET=E1085,NONLINEAR
0.00000000000e+00,-6.15995474578e-01
0.00000000000e+00,-3.75837727904e-02
3.27603000000e+06,0.00000000000e+00
5.36939084279e+07,5.78411701788e-01
*ELEMENT,TYPE=SPRINGA,ELSET=E1086
1086,1086,1087
*SPRING,ELSET=E1086,NONLINEAR
0.00000000000e+00,-6.15492936940e-01
0.00000000000e+00,-3.75259858796e-02
3.27351000000e+06,0.00000000000e+00
5.36913884279e+07,5.77966951060e-01
*ELEMENT,TYPE=SPRINGA,ELSET=E1087
1087,1087,1088
*SPRING,ELSET=E1087,NONLINEAR
0.00000000000e+00,-6.70878523484e-01
0.00000000000e+00,-4.08721641043e-02
3.27090000000e+06,0.00000000000e+00
5.36887784279e+07,6.30006359380e-01
*ELEMENT,TYPE=SPRINGA,ELSET=E1088
1088,1088,1089
*SPRING,ELSET=E1088,NONLINEAR
0.00000000000e+00,-6.69108457300e-01
0.00000000000e+00,-4.06690451916e-02
3.26276000000e+06,0.00000000000e+00
5.36806384279e+07,6.28439412108e-01
*ELEMENT,TYPE=SPRINGA,ELSET=E1089
1089,1089,1090
*SPRING,ELSET=E1089,NONLINEAR
0.00000000000e+00,-6.12847088818e-01
0.00000000000e+00,-3.72224036790e-02
3.26024000000e+06,0.00000000000e+00
5.36781184279e+07,5.75624685139e-01
*ELEMENT,TYPE=SPRINGA,ELSET=E1090
1090,1090,1091
*SPRING,ELSET=E1090,NONLINEAR
0.00000000000e+00,-6.12370773423e-01
0.00000000000e+00,-3.71678630664e-02
3.25785000000e+06,0.00000000000e+00
5.36757284279e+07,5.75202910357e-01
*ELEMENT,TYPE=SPRINGA,ELSET=E1091
1091,1091,1092
*SPRING,ELSET=E1091,NONLINEAR
0.00000000000e+00,-6.11898533753e-01
0.00000000000e+00,-3.71138214006e-02
3.25548000000e+06,0.00000000000e+00
5.36733584279e+07,5.74784712352e-01
*ELEMENT,TYPE=SPRINGA,ELSET=E1092
1092,1092,1093
*SPRING,ELSET=E1092,NONLINEAR
0.00000000000e+00,-6.66991916834e-01
0.00000000000e+00,-4.04268304520e-02
3.25303000000e+06,0.00000000000e+00
5.36709084279e+07,6.26565086382e-01
*ELEMENT,TYPE=SPRINGA,ELSET=E1093
1093,1093,1094
*SPRING,ELSET=E1093,NONLINEAR
0.00000000000e+00,-6.65325165142e-01
0.00000000000e+00,-4.02364773577e-02
3.24536000000e+06,0.00000000000e+00
5.36632384279e+07,6.25088687784e-01
*ELEMENT,TYPE=SPRINGA,ELSET=E1094
1094,1094,1095
*SPRING,ELSET=E1094,NONLINEAR
0.00000000000e+00,-6.09410673323e-01
0.00000000000e+00,-3.68297886931e-02
3.24300000000e+06,0.00000000000e+00
5.36608784279e+07,5.72580884630e-01
*ELEMENT,TYPE=SPRINGA,ELSET=E1095
1095,1095,1096
*SPRING,ELSET=E1095,NONLINEAR
0.00000000000e+00,-6.08964523528e-01
0.00000000000e+00,-3.67789404855e-02
3.24076000000e+06,0.00000000000e+00
5.36586384279e+07,5.72185583043e-01
*ELEMENT,TYPE=SPRINGA,ELSET=E1096
1096,1096,1097
*SPRING,ELSET=E1096,NONLINEAR
0.00000000000e+00,-6.08522422440e-01
0.00000000000e+00,-3.67285827812e-02
3.23854000000e+06,0.00000000000e+00
5.36564184279e+07,5.71793839659e-01
*ELEMENT,TYPE=SPRINGA,ELSET=E1097
1097,1097,1098
*SPRING,ELSET=E1097,NONLINEAR
0.00000000000e+00,-6.63343266707e-01
0.00000000000e+00,-4.00108008420e-02
3.23625000000e+06,0.00000000000e+00
5.36541284279e+07,6.23332465865e-01
*ELEMENT,TYPE=SPRINGA,ELSET=E1098
1098,1098,1099
*SPRING,ELSET=E1098,NONLINEAR
0.00000000000e+00,-6.61584344832e-01
0.00000000000e+00,-3.98108409021e-02
3.22815000000e+06,0.00000000000e+00
5.36460284279e+07,6.21773503930e-01
*ELEMENT,TYPE=SPRINGA,ELSET=E1099
1099,1099,1100
*SPRING,ELSET=E1099,NONLINEAR
0.00000000000e+00,-6.06014724045e-01
0.00000000000e+00,-3.64435808616e-02
3.22595000000e+06,0.00000000000e+00
5.36438284279e+07,5.69571143184e-01
*ELEMENT,TYPE=SPRINGA,ELSET=E1100
1100,1100,1101
*SPRING,ELSET=E1100,NONLINEAR
0.00000000000e+00,-6.05600320579e-01
0.00000000000e+00,-3.63965896475e-02
3.22387000000e+06,0.00000000000e+00
5.36417484279e+07,5.69203730932e-01
*ELEMENT,TYPE=SPRINGA,ELSET=E1101
1101,1101,1102
*SPRING,ELSET=E1101,NONLINEAR
0.00000000000e+00,-6.05189939213e-01
0.00000000000e+00,-3.63500806064e-02
3.22181000000e+06,0.00000000000e+00
5.36396884279e+07,5.68839858606e-01
*ELEMENT,TYPE=SPRINGA,ELSET=E1102
1102,1102,1103
*SPRING,ELSET=E1102,NONLINEAR
0.00000000000e+00,-6.59743885492e-01
0.00000000000e+00,-3.96021790607e-02
3.21968000000e+06,0.00000000000e+00
5.36375584279e+07,6.20141706431e-01
*ELEMENT,TYPE=SPRINGA,ELSET=E1103
1103,1103,1104
*SPRING,ELSET=E1103,NONLINEAR
0.00000000000e+00,-6.58291265387e-01
0.00000000000e+00,-3.94377960823e-02
3.21299000000e+06,0.00000000000e+00
5.36308684279e+07,6.18853469305e-01
*ELEMENT,TYPE=SPRINGA,ELSET=E1104
1104,1104,1105
*SPRING,ELSET=E1104,NONLINEAR
0.00000000000e+00,-6.03027352449e-01
0.00000000000e+00,-3.61054070005e-02
3.21095000000e+06,0.00000000000e+00
5.36288284279e+07,5.66921945449e-01
*ELEMENT,TYPE=SPRINGA,ELSET=E1105
1105,1105,1106
*SPRING,ELSET=E1105,NONLINEAR
0.00000000000e+00,-6.02642814463e-01
0.00000000000e+00,-3.60619931632e-02
3.20902000000e+06,0.00000000000e+00
5.36268984279e+07,5.66580821299e-01
*ELEMENT,TYPE=SPRINGA,ELSET=E1106
1106,1106,1107
*SPRING,ELSET=E1106,NONLINEAR
0.00000000000e+00,-6.02262275177e-01
0.00000000000e+00,-3.60190542128e-02
3.20711000000e+06,0.00000000000e+00
5.36249884279e+07,5.66243220964e-01
*ELEMENT,TYPE=SPRINGA,ELSET=E1107
1107,1107,1108
*SPRING,ELSET=E1107,NONLINEAR
0.00000000000e+00,-6.56583994060e-01
0.00000000000e+00,-3.92450389969e-02
3.20513000000e+06,0.00000000000e+00
5.36230084279e+07,6.17338955063e-01
*ELEMENT,TYPE=SPRINGA,ELSET=E1108
1108,1108,1109
*SPRING,ELSET=E1108,NONLINEAR
0.00000000000e+00,-6.55236152788e-01
0.00000000000e+00,-3.90931218450e-02
3.19892000000e+06,0.00000000000e+00
5.36167984279e+07,6.16143030943e-01
*ELEMENT,TYPE=SPRINGA,ELSET=E1109
1109,1109,1110
*SPRING,ELSET=E1109,NONLINEAR
0.00000000000e+00,-6.00257866393e-01
0.00000000000e+00,-3.57930744054e-02
3.19703000000e+06,0.00000000000e+00
5.36149084279e+07,5.64464791988e-01
*ELEMENT,TYPE=SPRINGA,ELSET=E1110
1110,1110,1111
*SPRING,ELSET=E1110,NONLINEAR
0.00000000000e+00,-5.99903063326e-01
0.00000000000e+00,-3.57531880586e-02
3.19525000000e+06,0.00000000000e+00
5.36131284279e+07,5.64149875267e-01
*ELEMENT,TYPE=SPRINGA,ELSET=E1111
1111,1111,1112
*SPRING,ELSET=E1111,NONLINEAR
0.00000000000e+00,-5.99552237309e-01
0.00000000000e+00,-3.57137698677e-02
3.19349000000e+06,0.00000000000e+00
5.36113684279e+07,5.63838467442e-01
*ELEMENT,TYPE=SPRINGA,ELSET=E1112
1112,1112,1113
*SPRING,ELSET=E1112,NONLINEAR
0.00000000000e+00,-6.53661368813e-01
0.00000000000e+00,-3.89159262618e-02
3.19166000000e+06,0.00000000000e+00
5.36095384279e+07,6.14745442551e-01
*ELEMENT,TYPE=SPRINGA,ELSET=E1113
1113,1113,1114
*SPRING,ELSET=E1113,NONLINEAR
0.00000000000e+00,-6.52263054378e-01
0.00000000000e+00,-3.87589782494e-02
3.18522000000e+06,0.00000000000e+00
5.36030984279e+07,6.13504076128e-01
*ELEMENT,TYPE=SPRINGA,ELSET=E1114
1114,1114,1115
*SPRING,ELSET=E1114,NONLINEAR
0.00000000000e+00,-5.97565343432e-01
0.00000000000e+00,-3.54906781619e-02
3.18350000000e+06,0.00000000000e+00
5.36013784279e+07,5.62074665271e-01
*ELEMENT,TYPE=SPRINGA,ELSET=E1115
1115,1115,1116
*SPRING,ELSET=E1115,NONLINEAR
0.00000000000e+00,-5.97241767895e-01
0.00000000000e+00,-3.54543765550e-02
3.18187000000e+06,0.00000000000e+00
5.35997484279e+07,5.61787391340e-01
*ELEMENT,TYPE=SPRINGA,ELSET=E1116
1116,1116,1117
*SPRING,ELSET=E1116,NONLINEAR
0.00000000000e+00,-5.96922148456e-01
0.00000000000e+00,-3.54185366793e-02
3.18026000000e+06,0.00000000000e+00
5.35981384279e+07,5.61503611777e-01
*ELEMENT,TYPE=SPRINGA,ELSET=E1117
1117,1117,1118
*SPRING,ELSET=E1117,NONLINEAR
0.00000000000e+00,-6.50827908219e-01
0.00000000000e+00,-3.85980879667e-02
3.17860000000e+06,0.00000000000e+00
5.35964784279e+07,6.12229820252e-01
*ELEMENT,TYPE=SPRINGA,ELSET=E1118
1118,1118,1119
*SPRING,ELSET=E1118,NONLINEAR
0.00000000000e+00,-6.49697059825e-01
0.00000000000e+00,-3.84716057888e-02
3.17339000000e+06,0.00000000000e+00
5.35912684279e+07,6.11225454037e-01
*ELEMENT,TYPE=SPRINGA,ELSET=E1119
1119,1119,1120
*SPRING,ELSET=E1119,NONLINEAR
0.00000000000e+00,-5.95243964135e-01
0.00000000000e+00,-3.52307769163e-02
3.17182000000e+06,0.00000000000e+00
5.35896984279e+07,5.60013187219e-01
*ELEMENT,TYPE=SPRINGA,ELSET=E1120
1120,1120,1121
*SPRING,ELSET=E1120,NONLINEAR
0.00000000000e+00,-5.94949886330e-01
0.00000000000e+00,-3.51979124883e-02
3.17034000000e+06,0.00000000000e+00
5.35882184279e+07,5.59751973841e-01
*ELEMENT,TYPE=SPRINGA,ELSET=E1121
1121,1121,1122
*SPRING,ELSET=E1121,NONLINEAR
0.00000000000e+00,-5.94659746507e-01
0.00000000000e+00,-3.51655041804e-02
3.16888000000e+06,0.00000000000e+00
5.35867584279e+07,5.59494242326e-01
*ELEMENT,TYPE=SPRINGA,ELSET=E1122
1122,1122,1123
*SPRING,ELSET=E1122,NONLINEAR
0.00000000000e+00,-6.48393472090e-01
0.00000000000e+00,-3.83259981548e-02
3.16738000000e+06,0.00000000000e+00
5.35852584279e+07,6.10067473935e-01
*ELEMENT,TYPE=SPRINGA,ELSET=E1123
1123,1123,1124
*SPRING,ELSET=E1123,NONLINEAR
0.00000000000e+00,-6.47368540997e-01
0.00000000000e+00,-3.82116447198e-02
3.16265000000e+06,0.00000000000e+00
5.35805284279e+07,6.09156896277e-01
*ELEMENT,TYPE=SPRINGA,ELSET=E1124
1124,1124,1125
*SPRING,ELSET=E1124,NONLINEAR
0.00000000000e+00,-5.93140164729e-01
0.00000000000e+00,-3.49959627542e-02
3.16123000000e+06,0.00000000000e+00
5.35791084279e+07,5.58144201975e-01
*ELEMENT,TYPE=SPRINGA,ELSET=E1125
1125,1125,1126
*SPRING,ELSET=E1125,NONLINEAR
0.00000000000e+00,-5.92875484341e-01
0.00000000000e+00,-3.49664972670e-02
3.15990000000e+06,0.00000000000e+00
5.35777784279e+07,5.57908987074e-01
*ELEMENT,TYPE=SPRINGA,ELSET=E1126
1126,1126,1127
*SPRING,ELSET=E1126,NONLINEAR
0.00000000000e+00,-5.92614725562e-01
0.00000000000e+00,-3.49374828342e-02
3.15859000000e+06,0.00000000000e+00
5.35764684279e+07,5.57677242728e-01
*ELEMENT,TYPE=SPRINGA,ELSET=E1127
1127,1127,1128
*SPRING,ELSET=E1127,NONLINEAR
0.00000000000e+00,-6.46195947645e-01
0.00000000000e+00,-3.80810300306e-02
3.15724000000e+06,0.00000000000e+00
5.35751184279e+07,6.08114917615e-01
*ELEMENT,TYPE=SPRINGA,ELSET=E1128
1128,1128,1129
*SPRING,ELSET=E1128,NONLINEAR
0.00000000000e+00,-4.83898827723e-01
0.00000000000e+00,-2.84774964064e-02
3.15263000000e+06,0.00000000000e+00
5.35705084279e+07,4.55421331316e-01
*ELEMENT,TYPE=SPRINGA,ELSET=E1129
1129,1129,1130
*SPRING,ELSET=E1129,NONLINEAR
0.00000000000e+00,-5.91215084085e-01
0.00000000000e+00,-3.47817475115e-02
3.15154000000e+06,0.00000000000e+00
5.35694184279e+07,5.56433336573e-01
*ELEMENT,TYPE=SPRINGA,ELSET=E1130
1130,1130,1131
*SPRING,ELSET=E1130,NONLINEAR
0.00000000000e+00,-5.90980314471e-01
0.00000000000e+00,-3.47556835568e-02
3.15036000000e+06,0.00000000000e+00
5.35682384279e+07,5.56224630914e-01
*ELEMENT,TYPE=SPRINGA,ELSET=E1131
1131,1131,1132
*SPRING,ELSET=E1131,NONLINEAR
0.00000000000e+00,-5.90749451518e-01
0.00000000000e+00,-3.47300660652e-02
3.14920000000e+06,0.00000000000e+00
5.35670784279e+07,5.56019385453e-01
*ELEMENT,TYPE=SPRINGA,ELSET=E1132
1132,1132,1133
*SPRING,ELSET=E1132,NONLINEAR
0.00000000000e+00,-4.83171490328e-01
0.00000000000e+00,-2.83967454685e-02
3.14816000000e+06,0.00000000000e+00
5.35660384279e+07,4.54774744860e-01
*ELEMENT,TYPE=SPRINGA,ELSET=E1133
1133,1133,1134
*SPRING,ELSET=E1133,NONLINEAR
0.00000000000e+00,-4.82610370061e-01
0.00000000000e+00,-2.83345092420e-02
3.14471000000e+06,0.00000000000e+00
5.35625884279e+07,4.54275860819e-01
*ELEMENT,TYPE=SPRINGA,ELSET=E1134
1134,1134,1135
*SPRING,ELSET=E1134,NONLINEAR
0.00000000000e+00,-5.89664877899e-01
0.00000000000e+00,-3.46097283401e-02
3.14374000000e+06,0.00000000000e+00
5.35616184279e+07,5.55055149559e-01
*ELEMENT,TYPE=SPRINGA,ELSET=E1135
1135,1135,1136
*SPRING,ELSET=E1135,NONLINEAR
0.00000000000e+00,-5.89457107857e-01
0.00000000000e+00,-3.45866560544e-02
3.14269000000e+06,0.00000000000e+00
5.35605684279e+07,5.54870451803e-01
*ELEMENT,TYPE=SPRINGA,ELSET=E1136
1136,1136,1137
*SPRING,ELSET=E1136,NONLINEAR
0.00000000000e+00,-5.89253342534e-01
0.00000000000e+00,-3.45641366101e-02
3.14167000000e+06,0.00000000000e+00
5.35595484279e+07,5.54689205924e-01
*ELEMENT,TYPE=SPRINGA,ELSET=E1137
1137,1137,1138
*SPRING,ELSET=E1137,NONLINEAR
0.00000000000e+00,-4.81967482827e-01
0.00000000000e+00,-2.82632213730e-02
3.14075000000e+06,0.00000000000e+00
5.35586284279e+07,4.53704261454e-01
*ELEMENT,TYPE=SPRINGA,ELSET=E1138
1138,1138,1139
*SPRING,ELSET=E1138,NONLINEAR
0.00000000000e+00,-4.81474602323e-01
0.00000000000e+00,-2.82085907148e-02
3.13771000000e+06,0.00000000000e+00
5.35555884279e+07,4.53266011608e-01
*ELEMENT,TYPE=SPRINGA,ELSET=E1139
1139,1139,1140
*SPRING,ELSET=E1139,NONLINEAR
0.00000000000e+00,-5.52651943311e-01
0.00000000000e+00,-3.23708533928e-02
3.13690000000e+06,0.00000000000e+00
5.35547784279e+07,5.20281089918e-01
*ELEMENT,TYPE=SPRINGA,ELSET=E1140
1140,1140,1141
*SPRING,ELSET=E1140,NONLINEAR
0.00000000000e+00,-5.52492215911e-01
0.00000000000e+00,-3.23531450106e-02
3.13604000000e+06,0.00000000000e+00
5.35539184279e+07,5.20139070900e-01
*ELEMENT,TYPE=SPRINGA,ELSET=E1141
1141,1141,1142
*SPRING,ELSET=E1141,NONLINEAR
0.00000000000e+00,-5.52335732748e-01
0.00000000000e+00,-3.23358253185e-02
3.13520000000e+06,0.00000000000e+00
5.35530784279e+07,5.19999907429e-01
*ELEMENT,TYPE=SPRINGA,ELSET=E1142
1142,1142,1143
*SPRING,ELSET=E1142,NONLINEAR
0.00000000000e+00,-4.80941643402e-01
0.00000000000e+00,-2.81496346205e-02
3.13443000000e+06,0.00000000000e+00
5.35523084279e+07,4.52792008781e-01
*ELEMENT,TYPE=SPRINGA,ELSET=E1143
1143,1143,1144
*SPRING,ELSET=E1143,NONLINEAR
0.00000000000e+00,-4.80458385222e-01
0.00000000000e+00,-2.80962614882e-02
3.13146000000e+06,0.00000000000e+00
5.35493384279e+07,4.52362123734e-01
*ELEMENT,TYPE=SPRINGA,ELSET=E1144
1144,1144,1145
*SPRING,ELSET=E1144,NONLINEAR
0.00000000000e+00,-5.87084632274e-01
0.00000000000e+00,-3.43241225564e-02
3.13074000000e+06,0.00000000000e+00
5.35486184279e+07,5.52760509718e-01
*ELEMENT,TYPE=SPRINGA,ELSET=E1145
1145,1145,1146
*SPRING,ELSET=E1145,NONLINEAR
0.00000000000e+00,-5.86931852076e-01
0.00000000000e+00,-3.43072437638e-02
3.12997000000e+06,0.00000000000e+00
5.35478484279e+07,5.52624608312e-01
*ELEMENT,TYPE=SPRINGA,ELSET=E1146
1146,1146,1147
*SPRING,ELSET=E1146,NONLINEAR
0.00000000000e+00,-5.86782946658e-01
0.00000000000e+00,-3.42908016728e-02
3.12922000000e+06,0.00000000000e+00
5.35470984279e+07,5.52492144986e-01
*ELEMENT,TYPE=SPRINGA,ELSET=E1147
1147,1147,1148
*SPRING,ELSET=E1147,NONLINEAR
0.00000000000e+00,-4.79987171985e-01
0.00000000000e+00,-2.80442305945e-02
3.12856000000e+06,0.00000000000e+00
5.35464384279e+07,4.51942941391e-01
*ELEMENT,TYPE=SPRINGA,ELSET=E1148
1148,1148,1149
*SPRING,ELSET=E1148,NONLINEAR
0.00000000000e+00,-4.79634007150e-01
0.00000000000e+00,-2.80052093595e-02
3.12638000000e+06,0.00000000000e+00
5.35442584279e+07,4.51628797790e-01
*ELEMENT,TYPE=SPRINGA,ELSET=E1149
1149,1149,1150
*SPRING,ELSET=E1149,NONLINEAR
0.00000000000e+00,-5.86101597707e-01
0.00000000000e+00,-3.42156330877e-02
3.12579000000e+06,0.00000000000e+00
5.35436684279e+07,5.51885964619e-01
*ELEMENT,TYPE=SPRINGA,ELSET=E1150
1150,1150,1151
*SPRING,ELSET=E1150,NONLINEAR
0.00000000000e+00,-5.85975660441e-01
0.00000000000e+00,-3.42016858029e-02
3.12515000000e+06,0.00000000000e+00
5.35430284279e+07,5.51773974638e-01
*ELEMENT,TYPE=SPRINGA,ELSET=E1151
1151,1151,1152
*SPRING,ELSET=E1151,NONLINEAR
0.00000000000e+00,-5.85853699863e-01
0.00000000000e+00,-3.41882823585e-02
3.12454000000e+06,0.00000000000e+00
5.35424184279e+07,5.51665417505e-01
*ELEMENT,TYPE=SPRINGA,ELSET=E1152
1152,1152,1153
*SPRING,ELSET=E1152,NONLINEAR
0.00000000000e+00,-4.79246850520e-01
0.00000000000e+00,-2.79625445537e-02
3.12400000000e+06,0.00000000000e+00
5.35418784279e+07,4.51284305967e-01
*ELEMENT,TYPE=SPRINGA,ELSET=E1153
1153,1153,1154
*SPRING,ELSET=E1153,NONLINEAR
0.00000000000e+00,-5.85389154666e-01
0.00000000000e+00,-3.41370814606e-02
3.12220000000e+06,0.00000000000e+00
5.35400784279e+07,5.51252073206e-01
*ELEMENT,TYPE=SPRINGA,ELSET=E1154
1154,1154,1155
*SPRING,ELSET=E1154,NONLINEAR
0.00000000000e+00,-5.85286934094e-01
0.00000000000e+00,-3.41257673779e-02
3.12168000000e+06,0.00000000000e+00
5.35395584279e+07,5.51161166716e-01
*ELEMENT,TYPE=SPRINGA,ELSET=E1155
1155,1155,1156
*SPRING,ELSET=E1155,NONLINEAR
0.00000000000e+00,-5.85188684665e-01
0.00000000000e+00,-3.41149953543e-02
3.12119000000e+06,0.00000000000e+00
5.35390684279e+07,5.51073689310e-01
*ELEMENT,TYPE=SPRINGA,ELSET=E1156
1156,1156,1157
*SPRING,ELSET=E1156,NONLINEAR
0.00000000000e+00,-5.85094186983e-01
0.00000000000e+00,-3.41045465313e-02
3.12071000000e+06,0.00000000000e+00
5.35385884279e+07,5.50989640451e-01
*ELEMENT,TYPE=SPRINGA,ELSET=E1157
1157,1157,1158
*SPRING,ELSET=E1157,NONLINEAR
0.00000000000e+00,-5.84961116214e-01
0.00000000000e+00,-3.40921598336e-02
3.12026000000e+06,0.00000000000e+00
5.35381384279e+07,5.50868956380e-01
*ELEMENT,TYPE=SPRINGA,ELSET=E1158
1158,1158,1159
*SPRING,ELSET=E1158,NONLINEAR
0.00000000000e+00,-4.78436207558e-01
0.00000000000e+00,-2.78709821759e-02
3.11874000000e+06,0.00000000000e+00
5.35366184279e+07,4.50565225382e-01
*ELEMENT,TYPE=SPRINGA,ELSET=E1159
1159,1159,1160
*SPRING,ELSET=E1159,NONLINEAR
0.00000000000e+00,-5.84637531058e-01
0.00000000000e+00,-3.40542756468e-02
3.11841000000e+06,0.00000000000e+00
5.35362884279e+07,5.50583255411e-01
*ELEMENT,TYPE=SPRINGA,ELSET=E1160
1160,1160,1161
*SPRING,ELSET=E1160,NONLINEAR
0.00000000000e+00,-5.84568410390e-01
0.00000000000e+00,-3.40466503666e-02
3.11806000000e+06,0.00000000000e+00
5.35359384279e+07,5.50521760024e-01
*ELEMENT,TYPE=SPRINGA,ELSET=E1161
1161,1161,1162
*SPRING,ELSET=E1161,NONLINEAR
0.00000000000e+00,-5.84503147213e-01
0.00000000000e+00,-3.40394561802e-02
3.11773000000e+06,0.00000000000e+00
5.35356084279e+07,5.50463691033e-01
*ELEMENT,TYPE=SPRINGA,ELSET=E1162
1162,1162,1163
*SPRING,ELSET=E1162,NONLINEAR
0.00000000000e+00,-4.78141592620e-01
0.00000000000e+00,-2.78429693380e-02
3.11745000000e+06,0.00000000000e+00
5.35353284279e+07,4.50298623282e-01
*ELEMENT,TYPE=SPRINGA,ELSET=E1163
1163,1163,1164
*SPRING,ELSET=E1163,NONLINEAR
0.00000000000e+00,-4.78088082655e-01
0.00000000000e+00,-2.78327044955e-02
3.11660000000e+06,0.00000000000e+00
5.35344784279e+07,4.50255378160e-01
*ELEMENT,TYPE=SPRINGA,ELSET=E1164
1164,1164,1165
*SPRING,ELSET=E1164,NONLINEAR
0.00000000000e+00,-5.84236148511e-01
0.00000000000e+00,-3.40101348973e-02
3.11639000000e+06,0.00000000000e+00
5.35342684279e+07,5.50226013614e-01
*ELEMENT,TYPE=SPRINGA,ELSET=E1165
1165,1165,1166
*SPRING,ELSET=E1165,NONLINEAR
0.00000000000e+00,-5.84193792916e-01
0.00000000000e+00,-3.40054082426e-02
3.11617000000e+06,0.00000000000e+00
5.35340484279e+07,5.50188384673e-01
*ELEMENT,TYPE=SPRINGA,ELSET=E1166
1166,1166,1167
*SPRING,ELSET=E1166,NONLINEAR
0.00000000000e+00,-5.84155401070e-01
0.00000000000e+00,-3.40012209111e-02
3.11598000000e+06,0.00000000000e+00
5.35338584279e+07,5.50154180159e-01
*ELEMENT,TYPE=SPRINGA,ELSET=E1167
1167,1167,1168
*SPRING,ELSET=E1167,NONLINEAR
0.00000000000e+00,-4.77876995641e-01
0.00000000000e+00,-2.78138582666e-02
3.11582000000e+06,0.00000000000e+00
5.35336984279e+07,4.50063137375e-01
*ELEMENT,TYPE=SPRINGA,ELSET=E1168
1168,1168,1169
*SPRING,ELSET=E1168,NONLINEAR
0.00000000000e+00,-4.77892464114e-01
0.00000000000e+00,-2.78111433786e-02
3.11539000000e+06,0.00000000000e+00
5.35332684279e+07,4.50081320735e-01
*ELEMENT,TYPE=SPRINGA,ELSET=E1169
1169,1169,1170
*SPRING,ELSET=E1169,NONLINEAR
0.00000000000e+00,-5.48626776079e-01
0.00000000000e+00,-3.19267828422e-02
3.11531000000e+06,0.00000000000e+00
5.35331884279e+07,5.16699993237e-01
*ELEMENT,TYPE=SPRINGA,ELSET=E1170
1170,1170,1171
*SPRING,ELSET=E1170,NONLINEAR
0.00000000000e+00,-5.48612859492e-01
0.00000000000e+00,-3.19252008424e-02
3.11523000000e+06,0.00000000000e+00
5.35331084279e+07,5.16687658650e-01
*ELEMENT,TYPE=SPRINGA,ELSET=E1171
1171,1171,1172
*SPRING,ELSET=E1171,NONLINEAR
0.00000000000e+00,-5.48602263767e-01
0.00000000000e+00,-3.19241016716e-02
3.11518000000e+06,0.00000000000e+00
5.35330584279e+07,5.16678162095e-01
*ELEMENT,TYPE=SPRINGA,ELSET=E1172
1172,1172,1173
*SPRING,ELSET=E1172,NONLINEAR
0.00000000000e+00,-4.77766116226e-01
0.00000000000e+00,-2.78016891819e-02
3.11514000000e+06,0.00000000000e+00
5.35330184279e+07,4.49964427044e-01
*ELEMENT,TYPE=SPRINGA,ELSET=E1173
1173,1173,1174
*SPRING,ELSET=E1173,NONLINEAR
0.00000000000e+00,-4.77851072434e-01
0.00000000000e+00,-2.78066328688e-02
3.11514000000e+06,0.00000000000e+00
5.35330184279e+07,4.50044439565e-01
*ELEMENT,TYPE=SPRINGA,ELSET=E1174
1174,1174,1175
*SPRING,ELSET=E1174,NONLINEAR
0.00000000000e+00,-5.83996277903e-01
0.00000000000e+00,-3.39837397381e-02
3.11518000000e+06,0.00000000000e+00
5.35330584279e+07,5.50012538165e-01
*ELEMENT,TYPE=SPRINGA,ELSET=E1175
1175,1175,1176
*SPRING,ELSET=E1175,NONLINEAR
0.00000000000e+00,-5.84008587660e-01
0.00000000000e+00,-3.39850725318e-02
3.11524000000e+06,0.00000000000e+00
5.35331184279e+07,5.50023515128e-01
*ELEMENT,TYPE=SPRINGA,ELSET=E1176
1176,1176,1177
*SPRING,ELSET=E1176,NONLINEAR
0.00000000000e+00,-5.84024750621e-01
0.00000000000e+00,-3.39868350769e-02
3.11532000000e+06,0.00000000000e+00
5.35331984279e+07,5.50037915544e-01
*ELEMENT,TYPE=SPRINGA,ELSET=E1177
1177,1177,1178
*SPRING,ELSET=E1177,NONLINEAR
0.00000000000e+00,-4.77810716866e-01
0.00000000000e+00,-2.78065541861e-02
3.11541000000e+06,0.00000000000e+00
5.35332884279e+07,4.50004162680e-01
*ELEMENT,TYPE=SPRINGA,ELSET=E1178
1178,1178,1179
*SPRING,ELSET=E1178,NONLINEAR
0.00000000000e+00,-4.77966978348e-01
0.00000000000e+00,-2.78193477873e-02
3.11585000000e+06,0.00000000000e+00
5.35337284279e+07,4.50147630561e-01
*ELEMENT,TYPE=SPRINGA,ELSET=E1179
1179,1179,1180
*SPRING,ELSET=E1179,NONLINEAR
0.00000000000e+00,-5.84162145925e-01
0.00000000000e+00,-3.40019218065e-02
3.11601000000e+06,0.00000000000e+00
5.35338884279e+07,5.50160224119e-01
*ELEMENT,TYPE=SPRINGA,ELSET=E1180
1180,1180,1181
*SPRING,ELSET=E1180,NONLINEAR
0.00000000000e+00,-5.84201316775e-01
0.00000000000e+00,-3.40062572991e-02
3.11621000000e+06,0.00000000000e+00
5.35340884279e+07,5.50195059476e-01
*ELEMENT,TYPE=SPRINGA,ELSET=E1181
1181,1181,1182
*SPRING,ELSET=E1181,NONLINEAR
0.00000000000e+00,-5.84244342309e-01
0.00000000000e+00,-3.40110230088e-02
3.11643000000e+06,0.00000000000e+00
5.35343084279e+07,5.50233319300e-01
*ELEMENT,TYPE=SPRINGA,ELSET=E1182
1182,1182,1183
*SPRING,ELSET=E1182,NONLINEAR
0.00000000000e+00,-4.78010296360e-01
0.00000000000e+00,-2.78285124028e-02
3.11664000000e+06,0.00000000000e+00
5.35345184279e+07,4.50181783957e-01
*ELEMENT,TYPE=SPRINGA,ELSET=E1183
1183,1183,1184
*SPRING,ELSET=E1183,NONLINEAR
0.00000000000e+00,-4.78235617761e-01
0.00000000000e+00,-2.78488652206e-02
3.11750000000e+06,0.00000000000e+00
5.35353784279e+07,4.50386752541e-01
*ELEMENT,TYPE=SPRINGA,ELSET=E1184
1184,1184,1185
*SPRING,ELSET=E1184,NONLINEAR
0.00000000000e+00,-5.49087928981e-01
0.00000000000e+00,-3.19774784413e-02
3.11778000000e+06,0.00000000000e+00
5.35356584279e+07,5.17110450539e-01
*ELEMENT,TYPE=SPRINGA,ELSET=E1185
1185,1185,1186
*SPRING,ELSET=E1185,NONLINEAR
0.00000000000e+00,-5.49145919314e-01
0.00000000000e+00,-3.19838502942e-02
3.11809000000e+06,0.00000000000e+00
5.35359684279e+07,5.17162069019e-01
*ELEMENT,TYPE=SPRINGA,ELSET=E1186
1186,1186,1187
*SPRING,ELSET=E1186,NONLINEAR
0.00000000000e+00,-5.49207131639e-01
0.00000000000e+00,-3.19906036416e-02
3.11842000000e+06,0.00000000000e+00
5.35362984279e+07,5.17216527998e-01
*ELEMENT,TYPE=SPRINGA,ELSET=E1187
1187,1187,1188
*SPRING,ELSET=E1187,NONLINEAR
0.00000000000e+00,-4.78351291986e-01
0.00000000000e+00,-2.78660354759e-02
3.11874000000e+06,0.00000000000e+00
5.35366184279e+07,4.50485256510e-01
*ELEMENT,TYPE=SPRINGA,ELSET=E1188
1188,1188,1189
*SPRING,ELSET=E1188,NONLINEAR
0.00000000000e+00,-4.78675394400e-01
0.00000000000e+00,-2.78972932397e-02
3.12021000000e+06,0.00000000000e+00
5.35380884279e+07,4.50778101161e-01
*ELEMENT,TYPE=SPRINGA,ELSET=E1189
1189,1189,1190
*SPRING,ELSET=E1189,NONLINEAR
0.00000000000e+00,-5.85077681744e-01
0.00000000000e+00,-3.41027611638e-02
3.12063000000e+06,0.00000000000e+00
5.35385084279e+07,5.50974920580e-01
*ELEMENT,TYPE=SPRINGA,ELSET=E1190
1190,1190,1191
*SPRING,ELSET=E1190,NONLINEAR
0.00000000000e+00,-5.85171416570e-01
0.00000000000e+00,-3.41130623311e-02
3.12110000000e+06,0.00000000000e+00
5.35389784279e+07,5.51058354239e-01
*ELEMENT,TYPE=SPRINGA,ELSET=E1191
1191,1191,1192
*SPRING,ELSET=E1191,NONLINEAR
0.00000000000e+00,-5.85269012302e-01
0.00000000000e+00,-3.41237959539e-02
3.12159000000e+06,0.00000000000e+00
5.35394684279e+07,5.51145216348e-01
*ELEMENT,TYPE=SPRINGA,ELSET=E1192
1192,1192,1193
*SPRING,ELSET=E1192,NONLINEAR
0.00000000000e+00,-4.78889287743e-01
0.00000000000e+00,-2.79253419708e-02
3.12206000000e+06,0.00000000000e+00
5.35399384279e+07,4.50963945773e-01
*ELEMENT,TYPE=SPRINGA,ELSET=E1193
1193,1193,1194
*SPRING,ELSET=E1193,NONLINEAR
0.00000000000e+00,-4.79255214270e-01
0.00000000000e+00,-2.79612625035e-02
3.12379000000e+06,0.00000000000e+00
5.35416684279e+07,4.51293951767e-01
*ELEMENT,TYPE=SPRINGA,ELSET=E1194
1194,1194,1195
*SPRING,ELSET=E1194,NONLINEAR
0.00000000000e+00,-5.85810556926e-01
0.00000000000e+00,-3.41834981184e-02
3.12432000000e+06,0.00000000000e+00
5.35421984279e+07,5.51627058807e-01
*ELEMENT,TYPE=SPRINGA,ELSET=E1195
1195,1195,1196
*SPRING,ELSET=E1195,NONLINEAR
0.00000000000e+00,-5.85931200230e-01
0.00000000000e+00,-3.41968237994e-02
3.12493000000e+06,0.00000000000e+00
5.35428084279e+07,5.51734376431e-01
*ELEMENT,TYPE=SPRINGA,ELSET=E1196
1196,1196,1197
*SPRING,ELSET=E1196,NONLINEAR
0.00000000000e+00,-5.86055710443e-01
0.00000000000e+00,-3.42105837823e-02
3.12556000000e+06,0.00000000000e+00
5.35434384279e+07,5.51845126660e-01
*ELEMENT,TYPE=SPRINGA,ELSET=E1197
1197,1197,1198
*SPRING,ELSET=E1197,NONLINEAR
0.00000000000e+00,-4.79552758830e-01
0.00000000000e+00,-2.79984413854e-02
3.12614000000e+06,0.00000000000e+00
5.35440184279e+07,4.51554317445e-01
*ELEMENT,TYPE=SPRINGA,ELSET=E1198
1198,1198,1199
*SPRING,ELSET=E1198,NONLINEAR
0.00000000000e+00,-5.86654988904e-01
0.00000000000e+00,-3.42744524167e-02
3.12836000000e+06,0.00000000000e+00
5.35462384279e+07,5.52380536488e-01
*ELEMENT,TYPE=SPRINGA,ELSET=E1199
1199,1199,1200
*SPRING,ELSET=E1199,NONLINEAR
0.00000000000e+00,-5.86756708438e-01
0.00000000000e+00,-3.42879270800e-02
3.12909000000e+06,0.00000000000e+00
5.35469684279e+07,5.52468781358e-01
*ELEMENT,TYPE=SPRINGA,ELSET=E1200
1200,1200,1201
*SPRING,ELSET=E1200,NONLINEAR
0.00000000000e+00,-5.86904959208e-01
0.00000000000e+00,-3.43043302583e-02
3.12984000000e+06,0.00000000000e+00
5.35477184279e+07,5.52600628950e-01
*ELEMENT,TYPE=SPRINGA,ELSET=E1201
1201,1201,1202
*SPRING,ELSET=E1201,NONLINEAR
0.00000000000e+00,-5.87056974932e-01
0.00000000000e+00,-3.43210604611e-02
3.13060000000e+06,0.00000000000e+00
5.35484784279e+07,5.52735914471e-01
*ELEMENT,TYPE=SPRINGA,ELSET=E1202
1202,1202,1203
*SPRING,ELSET=E1202,NONLINEAR
0.00000000000e+00,-5.87212976046e-01
0.00000000000e+00,-3.43383372928e-02
3.13139000000e+06,0.00000000000e+00
5.35492684279e+07,5.52874638753e-01
*ELEMENT,TYPE=SPRINGA,ELSET=E1203
1203,1203,1204
*SPRING,ELSET=E1203,NONLINEAR
0.00000000000e+00,-4.80942092051e-01
0.00000000000e+00,-2.81497454315e-02
3.13444000000e+06,0.00000000000e+00
5.35523184279e+07,4.52792346620e-01
*ELEMENT,TYPE=SPRINGA,ELSET=E1204
1204,1204,1205
*SPRING,ELSET=E1204,NONLINEAR
0.00000000000e+00,-5.87976098857e-01
0.00000000000e+00,-3.44226574057e-02
3.13523000000e+06,0.00000000000e+00
5.35531084279e+07,5.53553441452e-01
*ELEMENT,TYPE=SPRINGA,ELSET=E1205
1205,1205,1206
*SPRING,ELSET=E1205,NONLINEAR
0.00000000000e+00,-5.88153720464e-01
0.00000000000e+00,-3.44423616739e-02
3.13613000000e+06,0.00000000000e+00
5.35540084279e+07,5.53711358790e-01
*ELEMENT,TYPE=SPRINGA,ELSET=E1206
1206,1206,1207
*SPRING,ELSET=E1206,NONLINEAR
0.00000000000e+00,-5.88335116650e-01
0.00000000000e+00,-3.44623957708e-02
3.13704000000e+06,0.00000000000e+00
5.35549184279e+07,5.53872720879e-01
*ELEMENT,TYPE=SPRINGA,ELSET=E1207
1207,1207,1208
*SPRING,ELSET=E1207,NONLINEAR
0.00000000000e+00,-4.81502824796e-01
0.00000000000e+00,-2.82117677190e-02
3.13789000000e+06,0.00000000000e+00
5.35557684279e+07,4.53291057077e-01
*ELEMENT,TYPE=SPRINGA,ELSET=E1208
1208,1208,1209
*SPRING,ELSET=E1208,NONLINEAR
0.00000000000e+00,-4.81997420526e-01
0.00000000000e+00,-2.82665018601e-02
3.14093000000e+06,0.00000000000e+00
5.35588084279e+07,4.53730918666e-01
*ELEMENT,TYPE=SPRINGA,ELSET=E1209
1209,1209,1210
*SPRING,ELSET=E1209,NONLINEAR
0.00000000000e+00,-5.89290548631e-01
0.00000000000e+00,-3.45681833079e-02
3.14185000000e+06,0.00000000000e+00
5.35597284279e+07,5.54722365323e-01
*ELEMENT,TYPE=SPRINGA,ELSET=E1210
1210,1210,1211
*SPRING,ELSET=E1210,NONLINEAR
0.00000000000e+00,-5.89495101388e-01
0.00000000000e+00,-3.45908538011e-02
3.14288000000e+06,0.00000000000e+00
5.35607584279e+07,5.54904247587e-01
*ELEMENT,TYPE=SPRINGA,ELSET=E1211
1211,1211,1212
*SPRING,ELSET=E1211,NONLINEAR
0.00000000000e+00,-5.89703549120e-01
0.00000000000e+00,-3.46139671830e-02
3.14393000000e+06,0.00000000000e+00
5.35618084279e+07,5.55089581937e-01
*ELEMENT,TYPE=SPRINGA,ELSET=E1212
1212,1212,1213
*SPRING,ELSET=E1212,NONLINEAR
0.00000000000e+00,-4.82642514410e-01
0.00000000000e+00,-2.83380079995e-02
3.14490000000e+06,0.00000000000e+00
5.35627784279e+07,4.54304506410e-01
*ELEMENT,TYPE=SPRINGA,ELSET=E1213
1213,1213,1214
*SPRING,ELSET=E1213,NONLINEAR
0.00000000000e+00,-4.83205525267e-01
0.00000000000e+00,-2.84005287702e-02
3.14837000000e+06,0.00000000000e+00
5.35662484279e+07,4.54804996497e-01
*ELEMENT,TYPE=SPRINGA,ELSET=E1214
1214,1214,1215
*SPRING,ELSET=E1214,NONLINEAR
0.00000000000e+00,-5.54979627055e-01
0.00000000000e+00,-3.26289190291e-02
3.14938000000e+06,0.00000000000e+00
5.35672584279e+07,5.22350708025e-01
*ELEMENT,TYPE=SPRINGA,ELSET=E1215
1215,1215,1216
*SPRING,ELSET=E1215,NONLINEAR
0.00000000000e+00,-5.55183759779e-01
0.00000000000e+00,-3.26515532213e-02
3.15047000000e+06,0.00000000000e+00
5.35683484279e+07,5.22532206558e-01
*ELEMENT,TYPE=SPRINGA,ELSET=E1216
1216,1216,1217
*SPRING,ELSET=E1216,NONLINEAR
0.00000000000e+00,-5.55391155541e-01
0.00000000000e+00,-3.26745819232e-02
3.15158000000e+06,0.00000000000e+00
5.35694584279e+07,5.22716573618e-01
*ELEMENT,TYPE=SPRINGA,ELSET=E1217
1217,1217,1218
*SPRING,ELSET=E1217,NONLINEAR
0.00000000000e+00,-4.83899366848e-01
0.00000000000e+00,-2.84776131475e-02
3.15264000000e+06,0.00000000000e+00
5.35705184279e+07,4.55421753701e-01
*ELEMENT,TYPE=SPRINGA,ELSET=E1218
1218,1218,1219
*SPRING,ELSET=E1218,NONLINEAR
0.00000000000e+00,-6.46196581275e-01
0.00000000000e+00,-3.80810673711e-02
3.15724000000e+06,0.00000000000e+00
5.35751184279e+07,6.08115513904e-01
*ELEMENT,TYPE=SPRINGA,ELSET=E1219
1219,1219,1220
*SPRING,ELSET=E1219,NONLINEAR
0.00000000000e+00,-5.92615315708e-01
0.00000000000e+00,-3.49375176261e-02
3.15859000000e+06,0.00000000000e+00
5.35764684279e+07,5.57677798082e-01
*ELEMENT,TYPE=SPRINGA,ELSET=E1220
1220,1220,1221
*SPRING,ELSET=E1220,NONLINEAR
0.00000000000e+00,-5.92876083412e-01
0.00000000000e+00,-3.49665325989e-02
3.15990000000e+06,0.00000000000e+00
5.35777784279e+07,5.57909550813e-01
*ELEMENT,TYPE=SPRINGA,ELSET=E1221
1221,1221,1222
*SPRING,ELSET=E1221,NONLINEAR
0.00000000000e+00,-5.93140883419e-01
0.00000000000e+00,-3.49961093298e-02
3.16124000000e+06,0.00000000000e+00
5.35791184279e+07,5.58144774089e-01
*ELEMENT,TYPE=SPRINGA,ELSET=E1222
1222,1222,1223
*SPRING,ELSET=E1222,NONLINEAR
0.00000000000e+00,-6.47369214436e-01
0.00000000000e+00,-3.82116844703e-02
3.16265000000e+06,0.00000000000e+00
5.35805284279e+07,6.09157529965e-01
*ELEMENT,TYPE=SPRINGA,ELSET=E1223
1223,1223,1224
*SPRING,ELSET=E1223,NONLINEAR
0.00000000000e+00,-6.48394177834e-01
0.00000000000e+00,-3.83260398707e-02
3.16738000000e+06,0.00000000000e+00
5.35852584279e+07,6.10068137963e-01
*ELEMENT,TYPE=SPRINGA,ELSET=E1224
1224,1224,1225
*SPRING,ELSET=E1224,NONLINEAR
0.00000000000e+00,-5.94660402774e-01
0.00000000000e+00,-3.51655429891e-02
3.16888000000e+06,0.00000000000e+00
5.35867584279e+07,5.59494859785e-01
*ELEMENT,TYPE=SPRINGA,ELSET=E1225
1225,1225,1226
*SPRING,ELSET=E1225,NONLINEAR
0.00000000000e+00,-5.94950551539e-01
0.00000000000e+00,-3.51979518428e-02
3.17034000000e+06,0.00000000000e+00
5.35882184279e+07,5.59752599697e-01
*ELEMENT,TYPE=SPRINGA,ELSET=E1226
1226,1226,1227
*SPRING,ELSET=E1226,NONLINEAR
0.00000000000e+00,-5.95244638293e-01
0.00000000000e+00,-3.52308168178e-02
3.17182000000e+06,0.00000000000e+00
5.35896984279e+07,5.60013821476e-01
*ELEMENT,TYPE=SPRINGA,ELSET=E1227
1227,1227,1228
*SPRING,ELSET=E1227,NONLINEAR
0.00000000000e+00,-6.49697805481e-01
0.00000000000e+00,-3.84716499426e-02
3.17339000000e+06,0.00000000000e+00
5.35912684279e+07,6.11226155539e-01
*ELEMENT,TYPE=SPRINGA,ELSET=E1228
1228,1228,1229
*SPRING,ELSET=E1228,NONLINEAR
0.00000000000e+00,-1.08445621549e-01
0.00000000000e+00,-6.43013928850e-03
3.17789000000e+06,0.00000000000e+00
5.35957684279e+07,1.02015482261e-01
*ELEMENT,TYPE=SPRINGA,ELSET=E1229
1229,1229,1230
*SPRING,ELSET=E1229,NONLINEAR
0.00000000000e+00,-7.77496597986e-01
0.00000000000e+00,-4.61165955985e-02
3.17906000000e+06,0.00000000000e+00
5.35969384279e+07,7.31380002388e-01
*ELEMENT,TYPE=SPRINGA,ELSET=E1230
1230,1230,1231
*SPRING,ELSET=E1230,NONLINEAR
0.00000000000e+00,-7.78035192480e-01
0.00000000000e+00,-4.61769439964e-02
3.18114000000e+06,0.00000000000e+00
5.35990184279e+07,7.31858248484e-01
*ELEMENT,TYPE=SPRINGA,ELSET=E1231
1231,1231,1232
*SPRING,ELSET=E1231,NONLINEAR
0.00000000000e+00,-7.78582479375e-01
0.00000000000e+00,-4.62382556145e-02
3.18325000000e+06,0.00000000000e+00
5.36011284279e+07,7.32344223761e-01
*ELEMENT,TYPE=SPRINGA,ELSET=E1232
1232,1232,1233
*SPRING,ELSET=E1232,NONLINEAR
0.00000000000e+00,-6.52263872246e-01
0.00000000000e+00,-3.87590268490e-02
3.18522000000e+06,0.00000000000e+00
5.36030984279e+07,6.13504845397e-01
*ELEMENT,TYPE=SPRINGA,ELSET=E1233
1233,1233,1234
*SPRING,ELSET=E1233,NONLINEAR
0.00000000000e+00,-6.53662344688e-01
0.00000000000e+00,-3.89160990318e-02
3.19167000000e+06,0.00000000000e+00
5.36095484279e+07,6.14746245656e-01
*ELEMENT,TYPE=SPRINGA,ELSET=E1234
1234,1234,1235
*SPRING,ELSET=E1234,NONLINEAR
0.00000000000e+00,-5.99553029484e-01
0.00000000000e+00,-3.57138170555e-02
3.19349000000e+06,0.00000000000e+00
5.36113684279e+07,5.63839212428e-01
*ELEMENT,TYPE=SPRINGA,ELSET=E1235
1235,1235,1236
*SPRING,ELSET=E1235,NONLINEAR
0.00000000000e+00,-5.99903864516e-01
0.00000000000e+00,-3.57532358082e-02
3.19525000000e+06,0.00000000000e+00
5.36131284279e+07,5.64150628708e-01
*ELEMENT,TYPE=SPRINGA,ELSET=E1236
1236,1236,1237
*SPRING,ELSET=E1236,NONLINEAR
0.00000000000e+00,-6.00258788547e-01
0.00000000000e+00,-3.57932346744e-02
3.19704000000e+06,0.00000000000e+00
5.36149184279e+07,5.64465553873e-01
*ELEMENT,TYPE=SPRINGA,ELSET=E1237
1237,1237,1238
*SPRING,ELSET=E1237,NONLINEAR
0.00000000000e+00,-6.55237046920e-01
0.00000000000e+00,-3.90931751912e-02
3.19892000000e+06,0.00000000000e+00
5.36167984279e+07,6.16143871729e-01
*ELEMENT,TYPE=SPRINGA,ELSET=E1238
1238,1238,1239
*SPRING,ELSET=E1238,NONLINEAR
0.00000000000e+00,-6.56584920074e-01
0.00000000000e+00,-3.92450943461e-02
3.20513000000e+06,0.00000000000e+00
5.36230084279e+07,6.17339825727e-01
*ELEMENT,TYPE=SPRINGA,ELSET=E1239
1239,1239,1240
*SPRING,ELSET=E1239,NONLINEAR
0.00000000000e+00,-6.02263133446e-01
0.00000000000e+00,-3.60191055427e-02
3.20711000000e+06,0.00000000000e+00
5.36249884279e+07,5.66244027904e-01
*ELEMENT,TYPE=SPRINGA,ELSET=E1240
1240,1240,1241
*SPRING,ELSET=E1240,NONLINEAR
0.00000000000e+00,-6.02643681767e-01
0.00000000000e+00,-3.60620450624e-02
3.20902000000e+06,0.00000000000e+00
5.36268984279e+07,5.66581636704e-01
*ELEMENT,TYPE=SPRINGA,ELSET=E1241
1241,1241,1242
*SPRING,ELSET=E1241,NONLINEAR
0.00000000000e+00,-6.03028228795e-01
0.00000000000e+00,-3.61054594704e-02
3.21095000000e+06,0.00000000000e+00
5.36288284279e+07,5.66922769325e-01
*ELEMENT,TYPE=SPRINGA,ELSET=E1242
1242,1242,1243
*SPRING,ELSET=E1242,NONLINEAR
0.00000000000e+00,-6.58292354465e-01
0.00000000000e+00,-3.94379767197e-02
3.21300000000e+06,0.00000000000e+00
5.36308784279e+07,6.18854377745e-01
*ELEMENT,TYPE=SPRINGA,ELSET=E1243
1243,1243,1244
*SPRING,ELSET=E1243,NONLINEAR
0.00000000000e+00,-6.59744883550e-01
0.00000000000e+00,-3.96022389708e-02
3.21968000000e+06,0.00000000000e+00
5.36375584279e+07,6.20142644579e-01
*ELEMENT,TYPE=SPRINGA,ELSET=E1244
1244,1244,1245
*SPRING,ELSET=E1244,NONLINEAR
0.00000000000e+00,-6.05190976381e-01
0.00000000000e+00,-3.63502489513e-02
3.22182000000e+06,0.00000000000e+00
5.36396984279e+07,5.68840727430e-01
*ELEMENT,TYPE=SPRINGA,ELSET=E1245
1245,1245,1246
*SPRING,ELSET=E1245,NONLINEAR
0.00000000000e+00,-6.05601366891e-01
0.00000000000e+00,-3.63967586431e-02
3.22388000000e+06,0.00000000000e+00
5.36417584279e+07,5.69204608248e-01
*ELEMENT,TYPE=SPRINGA,ELSET=E1246
1246,1246,1247
*SPRING,ELSET=E1246,NONLINEAR
0.00000000000e+00,-6.06015779508e-01
0.00000000000e+00,-3.64437505100e-02
3.22596000000e+06,0.00000000000e+00
5.36438384279e+07,5.69572028998e-01
*ELEMENT,TYPE=SPRINGA,ELSET=E1247
1247,1247,1248
*SPRING,ELSET=E1247,NONLINEAR
0.00000000000e+00,-6.61585506692e-01
0.00000000000e+00,-3.98110267201e-02
3.22816000000e+06,0.00000000000e+00
5.36460384279e+07,6.21774479971e-01
*ELEMENT,TYPE=SPRINGA,ELSET=E1248
1248,1248,1249
*SPRING,ELSET=E1248,NONLINEAR
0.00000000000e+00,-6.63344340722e-01
0.00000000000e+00,-4.00108656233e-02
3.23625000000e+06,0.00000000000e+00
5.36541284279e+07,6.23333475099e-01
*ELEMENT,TYPE=SPRINGA,ELSET=E1249
1249,1249,1250
*SPRING,ELSET=E1249,NONLINEAR
0.00000000000e+00,-6.08523529879e-01
0.00000000000e+00,-3.67287561888e-02
3.23855000000e+06,0.00000000000e+00
5.36564284279e+07,5.71794773690e-01
*ELEMENT,TYPE=SPRINGA,ELSET=E1250
1250,1250,1251
*SPRING,ELSET=E1250,NONLINEAR
0.00000000000e+00,-6.08965640134e-01
0.00000000000e+00,-3.67791145584e-02
3.24077000000e+06,0.00000000000e+00
5.36586484279e+07,5.72186525575e-01
*ELEMENT,TYPE=SPRINGA,ELSET=E1251
1251,1251,1252
*SPRING,ELSET=E1251,NONLINEAR
0.00000000000e+00,-6.09411799146e-01
0.00000000000e+00,-3.68299634362e-02
3.24301000000e+06,0.00000000000e+00
5.36608884279e+07,5.72581835710e-01
*ELEMENT,TYPE=SPRINGA,ELSET=E1252
1252,1252,1253
*SPRING,ELSET=E1252,NONLINEAR
0.00000000000e+00,-6.65326403813e-01
0.00000000000e+00,-4.02366687519e-02
3.24537000000e+06,0.00000000000e+00
5.36632484279e+07,6.25089735061e-01
*ELEMENT,TYPE=SPRINGA,ELSET=E1253
1253,1253,1254
*SPRING,ELSET=E1253,NONLINEAR
0.00000000000e+00,-6.66993062868e-01
0.00000000000e+00,-4.04268999139e-02
3.25303000000e+06,0.00000000000e+00
5.36709084279e+07,6.26566162954e-01
*ELEMENT,TYPE=SPRINGA,ELSET=E1254
1254,1254,1255
*SPRING,ELSET=E1254,NONLINEAR
0.00000000000e+00,-6.11899707848e-01
0.00000000000e+00,-3.71139997032e-02
3.25549000000e+06,0.00000000000e+00
5.36733684279e+07,5.74785708144e-01
*ELEMENT,TYPE=SPRINGA,ELSET=E1255
1255,1255,1256
*SPRING,ELSET=E1255,NONLINEAR
0.00000000000e+00,-6.12371956753e-01
0.00000000000e+00,-3.71680420514e-02
3.25786000000e+06,0.00000000000e+00
5.36757384279e+07,5.75203914702e-01
*ELEMENT,TYPE=SPRINGA,ELSET=E1256
1256,1256,1257
*SPRING,ELSET=E1256,NONLINEAR
0.00000000000e+00,-6.12848281367e-01
0.00000000000e+00,-3.72225833472e-02
3.26025000000e+06,0.00000000000e+00
5.36781284279e+07,5.75625698020e-01
*ELEMENT,TYPE=SPRINGA,ELSET=E1257
1257,1257,1258
*SPRING,ELSET=E1257,NONLINEAR
0.00000000000e+00,-6.69109768811e-01
0.00000000000e+00,-4.06692419768e-02
3.26277000000e+06,0.00000000000e+00
5.36806484279e+07,6.28440526834e-01
*ELEMENT,TYPE=SPRINGA,ELSET=E1258
1258,1258,1259
*SPRING,ELSET=E1258,NONLINEAR
0.00000000000e+00,-6.70879741570e-01
0.00000000000e+00,-4.08722383142e-02
3.27090000000e+06,0.00000000000e+00
5.36887784279e+07,6.30007503256e-01
*ELEMENT,TYPE=SPRINGA,ELSET=E1259
1259,1259,1260
*SPRING,ELSET=E1259,NONLINEAR
0.00000000000e+00,-6.15494063125e-01
0.00000000000e+00,-3.75260545420e-02
3.27351000000e+06,0.00000000000e+00
5.36913884279e+07,5.77968008583e-01
*ELEMENT,TYPE=SPRINGA,ELSET=E1260
1260,1260,1261
*SPRING,ELSET=E1260,NONLINEAR
0.00000000000e+00,-6.15996609902e-01
0.00000000000e+00,-3.75838420600e-02
3.27603000000e+06,0.00000000000e+00
5.36939084279e+07,5.78412767842e-01
*ELEMENT,TYPE=SPRINGA,ELSET=E1261
1261,1261,1262
*SPRING,ELSET=E1261,NONLINEAR
0.00000000000e+00,-6.16503261127e-01
0.00000000000e+00,-3.76421375344e-02
3.27857000000e+06,0.00000000000e+00
5.36964484279e+07,5.78861123592e-01
*ELEMENT,TYPE=SPRINGA,ELSET=E1262
1262,1262,1263
*SPRING,ELSET=E1262,NONLINEAR
0.00000000000e+00,-6.73131680837e-01
0.00000000000e+00,-4.11312695831e-02
3.28125000000e+06,0.00000000000e+00
5.36991284279e+07,6.32000411254e-01
*ELEMENT,TYPE=SPRINGA,ELSET=E1263
1263,1263,1264
*SPRING,ELSET=E1263,NONLINEAR
0.00000000000e+00,-6.75245387910e-01
0.00000000000e+00,-4.13750441612e-02
3.29096000000e+06,0.00000000000e+00
5.37088384279e+07,6.33870343749e-01
*ELEMENT,TYPE=SPRINGA,ELSET=E1264
1264,1264,1265
*SPRING,ELSET=E1264,NONLINEAR
0.00000000000e+00,-6.19529467388e-01
0.00000000000e+00,-3.79910945203e-02
3.29373000000e+06,0.00000000000e+00
5.37116084279e+07,5.81538372868e-01
*ELEMENT,TYPE=SPRINGA,ELSET=E1265
1265,1265,1266
*SPRING,ELSET=E1265,NONLINEAR
0.00000000000e+00,-6.20064230247e-01
0.00000000000e+00,-3.80529276111e-02
3.29641000000e+06,0.00000000000e+00
5.37142884279e+07,5.82011302636e-01
*ELEMENT,TYPE=SPRINGA,ELSET=E1266
1266,1266,1267
*SPRING,ELSET=E1266,NONLINEAR
0.00000000000e+00,-6.20603129759e-01
0.00000000000e+00,-3.81152788222e-02
3.29911000000e+06,0.00000000000e+00
5.37169884279e+07,5.82487850936e-01
*ELEMENT,TYPE=SPRINGA,ELSET=E1267
1267,1267,1268
*SPRING,ELSET=E1267,NONLINEAR
0.00000000000e+00,-6.77641116813e-01
0.00000000000e+00,-4.16520959026e-02
3.30196000000e+06,0.00000000000e+00
5.37198384279e+07,6.35989020910e-01
*ELEMENT,TYPE=SPRINGA,ELSET=E1268
1268,1268,1269
*SPRING,ELSET=E1268,NONLINEAR
0.00000000000e+00,-6.79621986031e-01
0.00000000000e+00,-4.18817654231e-02
3.31105000000e+06,0.00000000000e+00
5.37289284279e+07,6.37740220608e-01
*ELEMENT,TYPE=SPRINGA,ELSET=E1269
1269,1269,1270
*SPRING,ELSET=E1269,NONLINEAR
0.00000000000e+00,-6.23573400998e-01
0.00000000000e+00,-3.84596743888e-02
3.31398000000e+06,0.00000000000e+00
5.37318584279e+07,5.85113726609e-01
*ELEMENT,TYPE=SPRINGA,ELSET=E1270
1270,1270,1271
*SPRING,ELSET=E1270,NONLINEAR
0.00000000000e+00,-6.24138820779e-01
0.00000000000e+00,-3.85253910037e-02
3.31681000000e+06,0.00000000000e+00
5.37346884279e+07,5.85613429775e-01
*ELEMENT,TYPE=SPRINGA,ELSET=E1271
1271,1271,1272
*SPRING,ELSET=E1271,NONLINEAR
0.00000000000e+00,-6.24708525811e-01
0.00000000000e+00,-3.85917521835e-02
3.31967000000e+06,0.00000000000e+00
5.37375484279e+07,5.86116773627e-01
*ELEMENT,TYPE=SPRINGA,ELSET=E1272
1272,1272,1273
*SPRING,ELSET=E1272,NONLINEAR
0.00000000000e+00,-6.82154683984e-01
0.00000000000e+00,-4.21762518274e-02
3.32267000000e+06,0.00000000000e+00
5.37405484279e+07,6.39978432157e-01
*ELEMENT,TYPE=SPRINGA,ELSET=E1273
1273,1273,1274
*SPRING,ELSET=E1273,NONLINEAR
0.00000000000e+00,-5.69618507113e-01
0.00000000000e+00,-3.53106314994e-02
3.33195000000e+06,0.00000000000e+00
5.37498284279e+07,5.34307875613e-01
*ELEMENT,TYPE=SPRINGA,ELSET=E1274
1274,1274,1275
*SPRING,ELSET=E1274,NONLINEAR
0.00000000000e+00,-5.70637236963e-01
0.00000000000e+00,-3.54005693411e-02
3.33464000000e+06,0.00000000000e+00
5.37525184279e+07,5.35236667621e-01
*ELEMENT,TYPE=SPRINGA,ELSET=E1275
1275,1275,1276
*SPRING,ELSET=E1275,NONLINEAR
0.00000000000e+00,-5.71129025842e-01
0.00000000000e+00,-3.54579852682e-02
3.33734000000e+06,0.00000000000e+00
5.37552184279e+07,5.35671040574e-01
*ELEMENT,TYPE=SPRINGA,ELSET=E1276
1276,1276,1277
*SPRING,ELSET=E1276,NONLINEAR
0.00000000000e+00,-5.71624114564e-01
0.00000000000e+00,-3.55159490302e-02
3.34007000000e+06,0.00000000000e+00
5.37579484279e+07,5.36108165534e-01
*ELEMENT,TYPE=SPRINGA,ELSET=E1277
1277,1277,1278
*SPRING,ELSET=E1277,NONLINEAR
0.00000000000e+00,-5.72122293841e-01
0.00000000000e+00,-3.55742491587e-02
3.34281000000e+06,0.00000000000e+00
5.37606884279e+07,5.36548044682e-01
*ELEMENT,TYPE=SPRINGA,ELSET=E1278
1278,1278,1279
*SPRING,ELSET=E1278,NONLINEAR
0.00000000000e+00,-7.44508838516e-01
0.00000000000e+00,-4.63343174456e-02
3.34598000000e+06,0.00000000000e+00
5.37638584279e+07,6.98174521071e-01
*ELEMENT,TYPE=SPRINGA,ELSET=E1279
1279,1279,1280
*SPRING,ELSET=E1279,NONLINEAR
0.00000000000e+00,-5.73052227761e-02
0.00000000000e+00,-3.56831493340e-03
3.34792000000e+06,0.00000000000e+00
5.37657984279e+07,5.37369078427e-02
*ELEMENT,TYPE=SPRINGA,ELSET=E1280
1280,1280,1281
*SPRING,ELSET=E1280,NONLINEAR
0.00000000000e+00,-5.30892856785e-02
0.00000000000e+00,-3.08928138643e-03
3.11510000000e+06,0.00000000000e+00
5.35329784279e+07,5.00000042921e-02
*ELEMENT,TYPE=SPRINGA,ELSET=E1281
1281,1281,1282
*SPRING,ELSET=E1281,NONLINEAR
0.00000000000e+00,-1.59267843489e-01
0.00000000000e+00,-9.26784337102e-03
3.11510000000e+06,0.00000000000e+00
5.35329784279e+07,1.50000000118e-01
*ELEMENT,TYPE=SPRINGA,ELSET=E1282
1282,1282,1283
*SPRING,ELSET=E1282,NONLINEAR
0.00000000000e+00,-3.45080362883e-02
0.00000000000e+00,-2.00803293593e-03
3.11510000000e+06,0.00000000000e+00
5.35329784279e+07,3.25000033524e-02
*ELEMENT,TYPE=SPRINGA,ELSET=E1283
1283,1283,1284
*SPRING,ELSET=E1283,NONLINEAR
0.00000000000e+00,-7.81744035951e-02
0.00000000000e+00,-4.91288417675e-03
3.38100000000e+06,0.00000000000e+00
5.37988784279e+07,7.32615194183e-02
*ELEMENT,TYPE=SPRINGA,ELSET=E1284
1284,1284,1285
*SPRING,ELSET=E1284,NONLINEAR
0.00000000000e+00,-1.44741309615e-01
0.00000000000e+00,-9.09483073159e-03
3.38042000000e+06,0.00000000000e+00
5.37982984279e+07,1.35646478883e-01
*ELEMENT,TYPE=SPRINGA,ELSET=E1285
1285,1285,1286
*SPRING,ELSET=E1285,NONLINEAR
0.00000000000e+00,-5.78627368935e-01
0.00000000000e+00,-3.63394448331e-02
3.37857000000e+06,0.00000000000e+00
5.37964484279e+07,5.42287924102e-01
*ELEMENT,TYPE=SPRINGA,ELSET=E1286
1286,1286,1287
*SPRING,ELSET=E1286,NONLINEAR
0.00000000000e+00,-5.78089212471e-01
0.00000000000e+00,-3.62758353016e-02
3.37561000000e+06,0.00000000000e+00
5.37934884279e+07,5.41813377169e-01
*ELEMENT,TYPE=SPRINGA,ELSET=E1287
1287,1287,1288
*SPRING,ELSET=E1287,NONLINEAR
0.00000000000e+00,-5.77554295871e-01
0.00000000000e+00,-3.62126824133e-02
3.37267000000e+06,0.00000000000e+00
5.37905484279e+07,5.41341613458e-01
*ELEMENT,TYPE=SPRINGA,ELSET=E1288
1288,1288,1289
*SPRING,ELSET=E1288,NONLINEAR
0.00000000000e+00,-5.77022615439e-01
0.00000000000e+00,-3.61499849540e-02
3.36975000000e+06,0.00000000000e+00
5.37876284279e+07,5.40872630485e-01
*ELEMENT,TYPE=SPRINGA,ELSET=E1289
1289,1289,1290
*SPRING,ELSET=E1289,NONLINEAR
0.00000000000e+00,-5.77030076436e-01
0.00000000000e+00,-3.61212888795e-02
3.36685000000e+06,0.00000000000e+00
5.37847284279e+07,5.40908787557e-01
*ELEMENT,TYPE=SPRINGA,ELSET=E1290
1290,1290,1291
*SPRING,ELSET=E1290,NONLINEAR
0.00000000000e+00,-6.60897473015e-01
0.00000000000e+00,-4.12572171200e-02
3.35695000000e+06,0.00000000000e+00
5.37748284279e+07,6.19640255895e-01
*ELEMENT,TYPE=SPRINGA,ELSET=E1291
1291,1291,1292
*SPRING,ELSET=E1291,NONLINEAR
0.00000000000e+00,-6.88907427062e-01
0.00000000000e+00,-4.29658881100e-02
3.35363000000e+06,0.00000000000e+00
5.37715084279e+07,6.45941538952e-01
*ELEMENT,TYPE=SPRINGA,ELSET=E1292
1292,1292,1293
*SPRING,ELSET=E1292,NONLINEAR
0.00000000000e+00,-6.88172680224e-01
0.00000000000e+00,-4.28796211113e-02
3.35026000000e+06,0.00000000000e+00
5.37681384279e+07,6.45293059112e-01
*ELEMENT,TYPE=SPRINGA,ELSET=E1293
1293,1293,1294
*SPRING,ELSET=E1293,NONLINEAR
0.00000000000e+00,-6.87443494141e-01
0.00000000000e+00,-4.27941412725e-02
3.34692000000e+06,0.00000000000e+00
5.37647984279e+07,6.44649352868e-01
*ELEMENT,TYPE=SPRINGA,ELSET=E1294
1294,1294,1295
*SPRING,ELSET=E1294,NONLINEAR
0.00000000000e+00,-7.15317398289e-01
0.00000000000e+00,-4.44870261148e-02
3.34353000000e+06,0.00000000000e+00
5.37614084279e+07,6.70830372174e-01
*ELEMENT,TYPE=SPRINGA,ELSET=E1295
1295,1295,1296
*SPRING,ELSET=E1295,NONLINEAR
0.00000000000e+00,-6.56046306922e-01
0.00000000000e+00,-4.06888951957e-02
3.33375000000e+06,0.00000000000e+00
5.37516284279e+07,6.15357411726e-01
*ELEMENT,TYPE=SPRINGA,ELSET=E1296
1296,1296,1297
*SPRING,ELSET=E1296,NONLINEAR
0.00000000000e+00,-6.83882754138e-01
0.00000000000e+00,-4.23776365863e-02
3.33059000000e+06,0.00000000000e+00
5.37484684279e+07,6.41505117552e-01
*ELEMENT,TYPE=SPRINGA,ELSET=E1297
1297,1297,1298
*SPRING,ELSET=E1297,NONLINEAR
0.00000000000e+00,-6.83186381507e-01
0.00000000000e+00,-4.22964478429e-02
3.32740000000e+06,0.00000000000e+00
5.37452784279e+07,6.40889933664e-01
*ELEMENT,TYPE=SPRINGA,ELSET=E1298
1298,1298,1299
*SPRING,ELSET=E1298,NONLINEAR
0.00000000000e+00,-6.82495394798e-01
0.00000000000e+00,-4.22159035553e-02
3.32423000000e+06,0.00000000000e+00
5.37421084279e+07,6.40279491243e-01
*ELEMENT,TYPE=SPRINGA,ELSET=E1299
1299,1299,1300
*SPRING,ELSET=E1299,NONLINEAR
0.00000000000e+00,-7.10203783383e-01
0.00000000000e+00,-4.38900133365e-02
3.32102000000e+06,0.00000000000e+00
5.37388984279e+07,6.66313770046e-01
*ELEMENT,TYPE=SPRINGA,ELSET=E1300
1300,1300,1301
*SPRING,ELSET=E1300,NONLINEAR
0.00000000000e+00,-6.51199661496e-01
0.00000000000e+00,-4.01245504931e-02
3.31055000000e+06,0.00000000000e+00
5.37284284279e+07,6.11075111003e-01
*ELEMENT,TYPE=SPRINGA,ELSET=E1301
1301,1301,1302
*SPRING,ELSET=E1301,NONLINEAR
0.00000000000e+00,-6.78864702245e-01
0.00000000000e+00,-4.17938349313e-02
3.30757000000e+06,0.00000000000e+00
5.37254484279e+07,6.37070867314e-01
*ELEMENT,TYPE=SPRINGA,ELSET=E1302
1302,1302,1303
*SPRING,ELSET=E1302,NONLINEAR
0.00000000000e+00,-6.78208387023e-01
0.00000000000e+00,-4.17177695765e-02
3.30456000000e+06,0.00000000000e+00
5.37224384279e+07,6.36490617446e-01
*ELEMENT,TYPE=SPRINGA,ELSET=E1303
1303,1303,1304
*SPRING,ELSET=E1303,NONLINEAR
0.00000000000e+00,-6.77557411046e-01
0.00000000000e+00,-4.16423341463e-02
3.30157000000e+06,0.00000000000e+00
5.37194484279e+07,6.35915076900e-01
*ELEMENT,TYPE=SPRINGA,ELSET=E1304
1304,1304,1305
*SPRING,ELSET=E1304,NONLINEAR
0.00000000000e+00,-7.05102628110e-01
0.00000000000e+00,-4.32980438578e-02
3.29855000000e+06,0.00000000000e+00
5.37164284279e+07,6.61804584252e-01
*ELEMENT,TYPE=SPRINGA,ELSET=E1305
1305,1305,1306
*SPRING,ELSET=E1305,NONLINEAR
0.00000000000e+00,-6.46856280939e-01
0.00000000000e+00,-3.96217341962e-02
3.28974000000e+06,0.00000000000e+00
5.37076184279e+07,6.07234546743e-01
*ELEMENT,TYPE=SPRINGA,ELSET=E1306
1306,1306,1307
*SPRING,ELSET=E1306,NONLINEAR
0.00000000000e+00,-6.74369517346e-01
0.00000000000e+00,-4.12738721641e-02
3.28693000000e+06,0.00000000000e+00
5.37048084279e+07,6.33095645182e-01
*ELEMENT,TYPE=SPRINGA,ELSET=E1307
1307,1307,1308
*SPRING,ELSET=E1307,NONLINEAR
0.00000000000e+00,-6.73750940468e-01
0.00000000000e+00,-4.12025627897e-02
3.28409000000e+06,0.00000000000e+00
5.37019684279e+07,6.32548377678e-01
*ELEMENT,TYPE=SPRINGA,ELSET=E1308
1308,1308,1309
*SPRING,ELSET=E1308,NONLINEAR
0.00000000000e+00,-6.73137786429e-01
0.00000000000e+00,-4.11319957429e-02
3.28128000000e+06,0.00000000000e+00
5.36991584279e+07,6.32005790686e-01
*ELEMENT,TYPE=SPRINGA,ELSET=E1309
1309,1309,1310
*SPRING,ELSET=E1309,NONLINEAR
0.00000000000e+00,-7.00538845885e-01
0.00000000000e+00,-4.27714238792e-02
3.27843000000e+06,0.00000000000e+00
5.36963084279e+07,6.57767422006e-01
*ELEMENT,TYPE=SPRINGA,ELSET=E1310
1310,1310,1311
*SPRING,ELSET=E1310,NONLINEAR
0.00000000000e+00,-6.42759504677e-01
0.00000000000e+00,-3.91500652063e-02
3.27010000000e+06,0.00000000000e+00
5.36879784279e+07,6.03609439471e-01
*ELEMENT,TYPE=SPRINGA,ELSET=E1311
1311,1311,1312
*SPRING,ELSET=E1311,NONLINEAR
0.00000000000e+00,-6.70131433713e-01
0.00000000000e+00,-4.07863248798e-02
3.26746000000e+06,0.00000000000e+00
5.36853384279e+07,6.29345108833e-01
*ELEMENT,TYPE=SPRINGA,ELSET=E1312
1312,1312,1313
*SPRING,ELSET=E1312,NONLINEAR
0.00000000000e+00,-6.69550368463e-01
0.00000000000e+00,-4.07196849835e-02
3.26479000000e+06,0.00000000000e+00
5.36826684279e+07,6.28830683479e-01
*ELEMENT,TYPE=SPRINGA,ELSET=E1313
1313,1313,1314
*SPRING,ELSET=E1313,NONLINEAR
0.00000000000e+00,-6.68974561427e-01
0.00000000000e+00,-4.06536499004e-02
3.26214000000e+06,0.00000000000e+00
5.36800184279e+07,6.28320911527e-01
*ELEMENT,TYPE=SPRINGA,ELSET=E1314
1314,1314,1315
*SPRING,ELSET=E1314,NONLINEAR
0.00000000000e+00,-6.96242041192e-01
0.00000000000e+00,-4.22781697023e-02
3.25947000000e+06,0.00000000000e+00
5.36773484279e+07,6.53963871490e-01
*ELEMENT,TYPE=SPRINGA,ELSET=E1315
1315,1315,1316
*SPRING,ELSET=E1315,NONLINEAR
0.00000000000e+00,-6.38704283738e-01
0.00000000000e+00,-3.86856904922e-02
3.25065000000e+06,0.00000000000e+00
5.36685284279e+07,6.00018593246e-01
*ELEMENT,TYPE=SPRINGA,ELSET=E1316
1316,1316,1317
*SPRING,ELSET=E1316,NONLINEAR
0.00000000000e+00,-6.65938392141e-01
0.00000000000e+00,-4.03064400471e-02
3.24818000000e+06,0.00000000000e+00
5.36660584279e+07,6.25631952094e-01
*ELEMENT,TYPE=SPRINGA,ELSET=E1317
1317,1317,1318
*SPRING,ELSET=E1317,NONLINEAR
0.00000000000e+00,-6.65396679344e-01
0.00000000000e+00,-4.02446466281e-02
3.24569000000e+06,0.00000000000e+00
5.36635684279e+07,6.25152032716e-01
*ELEMENT,TYPE=SPRINGA,ELSET=E1318
1318,1318,1319
*SPRING,ELSET=E1318,NONLINEAR
0.00000000000e+00,-6.64860185868e-01
0.00000000000e+00,-4.01834460193e-02
3.24322000000e+06,0.00000000000e+00
5.36610984279e+07,6.24676739849e-01
*ELEMENT,TYPE=SPRINGA,ELSET=E1319
1319,1319,1320
*SPRING,ELSET=E1319,NONLINEAR
0.00000000000e+00,-6.91997947075e-01
0.00000000000e+00,-4.17934525835e-02
3.24073000000e+06,0.00000000000e+00
5.36586084279e+07,6.50204494492e-01
*ELEMENT,TYPE=SPRINGA,ELSET=E1320
1320,1320,1321
*SPRING,ELSET=E1320,NONLINEAR
0.00000000000e+00,-6.35113084563e-01
0.00000000000e+00,-3.82764526059e-02
3.23341000000e+06,0.00000000000e+00
5.36512884279e+07,5.96836631957e-01
*ELEMENT,TYPE=SPRINGA,ELSET=E1321
1321,1321,1322
*SPRING,ELSET=E1321,NONLINEAR
0.00000000000e+00,-6.62227447038e-01
0.00000000000e+00,-3.98838783191e-02
3.23111000000e+06,0.00000000000e+00
5.36489884279e+07,6.22343568719e-01
*ELEMENT,TYPE=SPRINGA,ELSET=E1322
1322,1322,1323
*SPRING,ELSET=E1322,NONLINEAR
0.00000000000e+00,-6.61722822035e-01
0.00000000000e+00,-3.98265930238e-02
3.22879000000e+06,0.00000000000e+00
5.36466684279e+07,6.21896229011e-01
*ELEMENT,TYPE=SPRINGA,ELSET=E1323
1323,1323,1324
*SPRING,ELSET=E1323,NONLINEAR
0.00000000000e+00,-6.61223382003e-01
0.00000000000e+00,-3.97698899683e-02
3.22649000000e+06,0.00000000000e+00
5.36443684279e+07,6.21453492034e-01
*ELEMENT,TYPE=SPRINGA,ELSET=E1324
1324,1324,1325
*SPRING,ELSET=E1324,NONLINEAR
0.00000000000e+00,-6.88248928276e-01
0.00000000000e+00,-4.13673901746e-02
3.22417000000e+06,0.00000000000e+00
5.36420484279e+07,6.46881538102e-01
*ELEMENT,TYPE=SPRINGA,ELSET=E1325
1325,1325,1326
*SPRING,ELSET=E1325,NONLINEAR
0.00000000000e+00,-6.31767447011e-01
0.00000000000e+00,-3.78969404347e-02
3.21734000000e+06,0.00000000000e+00
5.36352184279e+07,5.93870506576e-01
*ELEMENT,TYPE=SPRINGA,ELSET=E1326
1326,1326,1327
*SPRING,ELSET=E1326,NONLINEAR
0.00000000000e+00,-6.58772555369e-01
0.00000000000e+00,-3.94922643807e-02
3.21521000000e+06,0.00000000000e+00
5.36330884279e+07,6.19280290988e-01
*ELEMENT,TYPE=SPRINGA,ELSET=E1327
1327,1327,1328
*SPRING,ELSET=E1327,NONLINEAR
0.00000000000e+00,-6.58304709594e-01
0.00000000000e+00,-3.94392938770e-02
3.21305000000e+06,0.00000000000e+00
5.36309284279e+07,6.18865415717e-01
*ELEMENT,TYPE=SPRINGA,ELSET=E1328
1328,1328,1329
*SPRING,ELSET=E1328,NONLINEAR
0.00000000000e+00,-6.57842139632e-01
0.00000000000e+00,-3.93870186338e-02
3.21092000000e+06,0.00000000000e+00
5.36287984279e+07,6.18455120999e-01
*ELEMENT,TYPE=SPRINGA,ELSET=E1329
1329,1329,1330
*SPRING,ELSET=E1329,NONLINEAR
0.00000000000e+00,-6.84765927498e-01
0.00000000000e+00,-4.09732181591e-02
3.20877000000e+06,0.00000000000e+00
5.36266484279e+07,6.43792709339e-01
*ELEMENT,TYPE=SPRINGA,ELSET=E1330
1330,1330,1331
*SPRING,ELSET=E1330,NONLINEAR
0.00000000000e+00,-6.28501911616e-01
0.00000000000e+00,-3.75281768476e-02
3.20165000000e+06,0.00000000000e+00
5.36195284279e+07,5.90973734769e-01
*ELEMENT,TYPE=SPRINGA,ELSET=E1331
1331,1331,1332
*SPRING,ELSET=E1331,NONLINEAR
0.00000000000e+00,-6.55402960764e-01
0.00000000000e+00,-3.91119247108e-02
3.19969000000e+06,0.00000000000e+00
5.36175684279e+07,6.16291036053e-01
*ELEMENT,TYPE=SPRINGA,ELSET=E1332
1332,1332,1333
*SPRING,ELSET=E1332,NONLINEAR
0.00000000000e+00,-6.54973889719e-01
0.00000000000e+00,-3.90635749473e-02
3.19771000000e+06,0.00000000000e+00
5.36155884279e+07,6.15910314772e-01
*ELEMENT,TYPE=SPRINGA,ELSET=E1333
1333,1333,1334
*SPRING,ELSET=E1333,NONLINEAR
0.00000000000e+00,-6.54550062738e-01
0.00000000000e+00,-3.90159103137e-02
3.19576000000e+06,0.00000000000e+00
5.36136384279e+07,6.15534152424e-01
*ELEMENT,TYPE=SPRINGA,ELSET=E1334
1334,1334,1335
*SPRING,ELSET=E1334,NONLINEAR
0.00000000000e+00,-6.81377797688e-01
0.00000000000e+00,-4.05914917460e-02
3.19379000000e+06,0.00000000000e+00
5.36116684279e+07,6.40786305942e-01
*ELEMENT,TYPE=SPRINGA,ELSET=E1335
1335,1335,1336
*SPRING,ELSET=E1335,NONLINEAR
0.00000000000e+00,-6.25660164878e-01
0.00000000000e+00,-3.72084721880e-02
3.18798000000e+06,0.00000000000e+00
5.36058584279e+07,5.88451692690e-01
*ELEMENT,TYPE=SPRINGA,ELSET=E1336
1336,1336,1337
*SPRING,ELSET=E1336,NONLINEAR
0.00000000000e+00,-6.52473530069e-01
0.00000000000e+00,-3.87825905335e-02
3.18619000000e+06,0.00000000000e+00
5.36040684279e+07,6.13690939535e-01
*ELEMENT,TYPE=SPRINGA,ELSET=E1337
1337,1337,1338
*SPRING,ELSET=E1337,NONLINEAR
0.00000000000e+00,-6.52081021380e-01
0.00000000000e+00,-3.87385499001e-02
3.18438000000e+06,0.00000000000e+00
5.36022584279e+07,6.13342471480e-01
*ELEMENT,TYPE=SPRINGA,ELSET=E1338
1338,1338,1339
*SPRING,ELSET=E1338,NONLINEAR
0.00000000000e+00,-6.51693607647e-01
0.00000000000e+00,-3.86950640469e-02
3.18259000000e+06,0.00000000000e+00
5.36004684279e+07,6.12998543600e-01
*ELEMENT,TYPE=SPRINGA,ELSET=E1339
1339,1339,1340
*SPRING,ELSET=E1339,NONLINEAR
0.00000000000e+00,-6.78441226585e-01
0.00000000000e+00,-4.02619228089e-02
3.18080000000e+06,0.00000000000e+00
5.35986784279e+07,6.38179303776e-01
*ELEMENT,TYPE=SPRINGA,ELSET=E1340
1340,1340,1341
*SPRING,ELSET=E1340,NONLINEAR
0.00000000000e+00,-5.68393424103e-01
0.00000000000e+00,-3.36788882146e-02
3.17556000000e+06,0.00000000000e+00
5.35934384279e+07,5.34714535889e-01
*ELEMENT,TYPE=SPRINGA,ELSET=E1341
1341,1341,1342
*SPRING,ELSET=E1341,NONLINEAR
0.00000000000e+00,-5.41549641740e-01
0.00000000000e+00,-3.20748206591e-02
3.17414000000e+06,0.00000000000e+00
5.35920184279e+07,5.09474821081e-01
*ELEMENT,TYPE=SPRINGA,ELSET=E1342
1342,1342,1343
*SPRING,ELSET=E1342,NONLINEAR
0.00000000000e+00,-5.41301380216e-01
0.00000000000e+00,-3.20470033102e-02
3.17276000000e+06,0.00000000000e+00
5.35906384279e+07,5.09254376906e-01
*ELEMENT,TYPE=SPRINGA,ELSET=E1343
1343,1343,1344
*SPRING,ELSET=E1343,NONLINEAR
0.00000000000e+00,-5.41056216271e-01
0.00000000000e+00,-3.20196655933e-02
3.17141000000e+06,0.00000000000e+00
5.35892884279e+07,5.09036550678e-01
*ELEMENT,TYPE=SPRINGA,ELSET=E1344
1344,1344,1345
*SPRING,ELSET=E1344,NONLINEAR
0.00000000000e+00,-5.40813845378e-01
0.00000000000e+00,-3.19925040779e-02
3.17006000000e+06,0.00000000000e+00
5.35879384279e+07,5.08821341300e-01
*ELEMENT,TYPE=SPRINGA,ELSET=E1345
1345,1345,1346
*SPRING,ELSET=E1345,NONLINEAR
0.00000000000e+00,-4.86527855377e-01
0.00000000000e+00,-2.87704722689e-02
3.16881000000e+06,0.00000000000e+00
5.35866884279e+07,4.57757383108e-01
*ELEMENT,TYPE=SPRINGA,ELSET=E1346
1346,1346,1347
*SPRING,ELSET=E1346,NONLINEAR
0.00000000000e+00,-5.54519707724e-02
0.00000000000e+00,-3.27846952567e-03
3.16815000000e+06,0.00000000000e+00
5.35860284279e+07,5.21735012468e-02
*ELEMENT,TYPE=SPRINGA,ELSET=E1347
1347,1347,1348
*SPRING,ELSET=E1347,NONLINEAR
0.00000000000e+00,-5.32785836442e-02
0.00000000000e+00,-3.18378649418e-03
3.20432000000e+06,0.00000000000e+00
5.36221984279e+07,5.00947971500e-02
*ELEMENT,TYPE=SPRINGA,ELSET=E1348
1348,1348,1349
*SPRING,ELSET=E1348,NONLINEAR
0.00000000000e+00,-4.92169403452e-01
0.00000000000e+00,-2.94034856034e-02
3.20348000000e+06,0.00000000000e+00
5.36213584279e+07,4.62765917848e-01
*ELEMENT,TYPE=SPRINGA,ELSET=E1349
1349,1349,1350
*SPRING,ELSET=E1349,NONLINEAR
0.00000000000e+00,-5.46565085645e-01
0.00000000000e+00,-3.26378907279e-02
3.20188000000e+06,0.00000000000e+00
5.36197584279e+07,5.13927194917e-01
*ELEMENT,TYPE=SPRINGA,ELSET=E1350
1350,1350,1351
*SPRING,ELSET=E1350,NONLINEAR
0.00000000000e+00,-5.46262823920e-01
0.00000000000e+00,-3.26037474741e-02
3.20020000000e+06,0.00000000000e+00
5.36180784279e+07,5.13659076446e-01
*ELEMENT,TYPE=SPRINGA,ELSET=E1351
1351,1351,1352
*SPRING,ELSET=E1351,NONLINEAR
0.00000000000e+00,-5.45963693372e-01
0.00000000000e+00,-3.25700950742e-02
3.19855000000e+06,0.00000000000e+00
5.36164284279e+07,5.13393598298e-01
*ELEMENT,TYPE=SPRINGA,ELSET=E1352
1352,1352,1353
*SPRING,ELSET=E1352,NONLINEAR
0.00000000000e+00,-5.46174829600e-01
0.00000000000e+00,-3.25669805980e-02
3.19691000000e+06,0.00000000000e+00
5.36147884279e+07,5.13607849002e-01
*ELEMENT,TYPE=SPRINGA,ELSET=E1353
1353,1353,1354
*SPRING,ELSET=E1353,NONLINEAR
0.00000000000e+00,-6.53550094928e-01
0.00000000000e+00,-3.89034542612e-02
3.19115000000e+06,0.00000000000e+00
5.36090284279e+07,6.14646640667e-01
*ELEMENT,TYPE=SPRINGA,ELSET=E1354
1354,1354,1355
*SPRING,ELSET=E1354,NONLINEAR
0.00000000000e+00,-5.98730527919e-01
0.00000000000e+00,-3.56213381147e-02
3.18935000000e+06,0.00000000000e+00
5.36072284279e+07,5.63109189804e-01
*ELEMENT,TYPE=SPRINGA,ELSET=E1355
1355,1355,1356
*SPRING,ELSET=E1355,NONLINEAR
0.00000000000e+00,-5.98393178532e-01
0.00000000000e+00,-3.55835246772e-02
3.18766000000e+06,0.00000000000e+00
5.36055384279e+07,5.62809653855e-01
*ELEMENT,TYPE=SPRINGA,ELSET=E1356
1356,1356,1357
*SPRING,ELSET=E1356,NONLINEAR
0.00000000000e+00,-5.98059682629e-01
0.00000000000e+00,-3.55460640996e-02
3.18598000000e+06,0.00000000000e+00
5.36038584279e+07,5.62513618529e-01
*ELEMENT,TYPE=SPRINGA,ELSET=E1357
1357,1357,1358
*SPRING,ELSET=E1357,NONLINEAR
0.00000000000e+00,-6.52053077886e-01
0.00000000000e+00,-3.87354023834e-02
3.18425000000e+06,0.00000000000e+00
5.36021284279e+07,6.13317675503e-01
*ELEMENT,TYPE=SPRINGA,ELSET=E1358
1358,1358,1359
*SPRING,ELSET=E1358,NONLINEAR
0.00000000000e+00,-6.50872549767e-01
0.00000000000e+00,-3.86031344588e-02
3.17881000000e+06,0.00000000000e+00
5.35966884279e+07,6.12269415308e-01
*ELEMENT,TYPE=SPRINGA,ELSET=E1359
1359,1359,1360
*SPRING,ELSET=E1359,NONLINEAR
0.00000000000e+00,-5.96307058987e-01
0.00000000000e+00,-3.53497002834e-02
3.17717000000e+06,0.00000000000e+00
5.35950484279e+07,5.60957358703e-01
*ELEMENT,TYPE=SPRINGA,ELSET=E1360
1360,1360,1361
*SPRING,ELSET=E1360,NONLINEAR
0.00000000000e+00,-5.95999146135e-01
0.00000000000e+00,-3.53152315854e-02
3.17562000000e+06,0.00000000000e+00
5.35934984279e+07,5.60683914550e-01
*ELEMENT,TYPE=SPRINGA,ELSET=E1361
1361,1361,1362
*SPRING,ELSET=E1361,NONLINEAR
0.00000000000e+00,-5.95695179544e-01
0.00000000000e+00,-3.52812215693e-02
3.17409000000e+06,0.00000000000e+00
5.35919684279e+07,5.60413957975e-01
*ELEMENT,TYPE=SPRINGA,ELSET=E1362
1362,1362,1363
*SPRING,ELSET=E1362,NONLINEAR
0.00000000000e+00,-6.49507193140e-01
0.00000000000e+00,-3.84503289817e-02
3.17251000000e+06,0.00000000000e+00
5.35903884279e+07,6.11056864158e-01
*ELEMENT,TYPE=SPRINGA,ELSET=E1363
1363,1363,1364
*SPRING,ELSET=E1363,NONLINEAR
0.00000000000e+00,-6.48298083047e-01
0.00000000000e+00,-3.83153510894e-02
3.16694000000e+06,0.00000000000e+00
5.35848184279e+07,6.09982731958e-01
*ELEMENT,TYPE=SPRINGA,ELSET=E1364
1364,1364,1365
*SPRING,ELSET=E1364,NONLINEAR
0.00000000000e+00,-5.93979652024e-01
0.00000000000e+00,-3.50896171172e-02
3.16546000000e+06,0.00000000000e+00
5.35833384279e+07,5.58890034907e-01
*ELEMENT,TYPE=SPRINGA,ELSET=E1365
1365,1365,1366
*SPRING,ELSET=E1365,NONLINEAR
0.00000000000e+00,-5.93702904263e-01
0.00000000000e+00,-3.50587763866e-02
3.16407000000e+06,0.00000000000e+00
5.35819484279e+07,5.58644127876e-01
*ELEMENT,TYPE=SPRINGA,ELSET=E1366
1366,1366,1367
*SPRING,ELSET=E1366,NONLINEAR
0.00000000000e+00,-5.93429973861e-01
0.00000000000e+00,-3.50282779578e-02
3.16269000000e+06,0.00000000000e+00
5.35805684279e+07,5.58401695903e-01
*ELEMENT,TYPE=SPRINGA,ELSET=E1367
1367,1367,1368
*SPRING,ELSET=E1367,NONLINEAR
0.00000000000e+00,-6.47071594593e-01
0.00000000000e+00,-3.81785483493e-02
3.16128000000e+06,0.00000000000e+00
5.35791584279e+07,6.08893046244e-01
*ELEMENT,TYPE=SPRINGA,ELSET=E1368
1368,1368,1369
*SPRING,ELSET=E1368,NONLINEAR
0.00000000000e+00,-6.46109234550e-01
0.00000000000e+00,-3.80713802303e-02
3.15684000000e+06,0.00000000000e+00
5.35747184279e+07,6.08037854320e-01
*ELEMENT,TYPE=SPRINGA,ELSET=E1369
1369,1369,1370
*SPRING,ELSET=E1369,NONLINEAR
0.00000000000e+00,-5.92003826014e-01
0.00000000000e+00,-3.48694388734e-02
3.15551000000e+06,0.00000000000e+00
5.35733884279e+07,5.57134387141e-01
*ELEMENT,TYPE=SPRINGA,ELSET=E1370
1370,1370,1371
*SPRING,ELSET=E1370,NONLINEAR
0.00000000000e+00,-5.91756421243e-01
0.00000000000e+00,-3.48419763181e-02
3.15427000000e+06,0.00000000000e+00
5.35721484279e+07,5.56914444924e-01
*ELEMENT,TYPE=SPRINGA,ELSET=E1371
1371,1371,1372
*SPRING,ELSET=E1371,NONLINEAR
0.00000000000e+00,-5.91512818810e-01
0.00000000000e+00,-3.48148516575e-02
3.15304000000e+06,0.00000000000e+00
5.35709184279e+07,5.56697967152e-01
*ELEMENT,TYPE=SPRINGA,ELSET=E1372
1372,1372,1373
*SPRING,ELSET=E1372,NONLINEAR
0.00000000000e+00,-6.45013500780e-01
0.00000000000e+00,-3.79494794470e-02
3.15178000000e+06,0.00000000000e+00
5.35696584279e+07,6.07064021333e-01
*ELEMENT,TYPE=SPRINGA,ELSET=E1373
1373,1373,1374
*SPRING,ELSET=E1373,NONLINEAR
0.00000000000e+00,-6.44157672864e-01
0.00000000000e+00,-3.78544204283e-02
3.14783000000e+06,0.00000000000e+00
5.35657084279e+07,6.06303252435e-01
*ELEMENT,TYPE=SPRINGA,ELSET=E1374
1374,1374,1375
*SPRING,ELSET=E1374,NONLINEAR
0.00000000000e+00,-5.90245533277e-01
0.00000000000e+00,-3.46740971593e-02
3.14666000000e+06,0.00000000000e+00
5.35645384279e+07,5.55571436118e-01
*ELEMENT,TYPE=SPRINGA,ELSET=E1375
1375,1375,1376
*SPRING,ELSET=E1375,NONLINEAR
0.00000000000e+00,-5.90027276772e-01
0.00000000000e+00,-3.46498704191e-02
3.14556000000e+06,0.00000000000e+00
5.35634384279e+07,5.55377406353e-01
*ELEMENT,TYPE=SPRINGA,ELSET=E1376
1376,1376,1377
*SPRING,ELSET=E1376,NONLINEAR
0.00000000000e+00,-5.89812919442e-01
0.00000000000e+00,-3.46260878603e-02
3.14448000000e+06,0.00000000000e+00
5.35623584279e+07,5.55186831582e-01
*ELEMENT,TYPE=SPRINGA,ELSET=E1377
1377,1377,1378
*SPRING,ELSET=E1377,NONLINEAR
0.00000000000e+00,-6.43192441268e-01
0.00000000000e+00,-3.77474001803e-02
3.14338000000e+06,0.00000000000e+00
5.35612584279e+07,6.05445041088e-01
*ELEMENT,TYPE=SPRINGA,ELSET=E1378
1378,1378,1379
*SPRING,ELSET=E1378,NONLINEAR
0.00000000000e+00,-6.42350524731e-01
0.00000000000e+00,-3.76540727837e-02
3.13949000000e+06,0.00000000000e+00
5.35573684279e+07,6.04696451947e-01
*ELEMENT,TYPE=SPRINGA,ELSET=E1379
1379,1379,1380
*SPRING,ELSET=E1379,NONLINEAR
0.00000000000e+00,-5.88621220890e-01
0.00000000000e+00,-3.44940541809e-02
3.13848000000e+06,0.00000000000e+00
5.35563584279e+07,5.54127166710e-01
*ELEMENT,TYPE=SPRINGA,ELSET=E1380
1380,1380,1381
*SPRING,ELSET=E1380,NONLINEAR
0.00000000000e+00,-5.88433865956e-01
0.00000000000e+00,-3.44733520153e-02
3.13754000000e+06,0.00000000000e+00
5.35554184279e+07,5.53960513940e-01
*ELEMENT,TYPE=SPRINGA,ELSET=E1381
1381,1381,1382
*SPRING,ELSET=E1381,NONLINEAR
0.00000000000e+00,-5.88250287763e-01
0.00000000000e+00,-3.44529803060e-02
3.13661000000e+06,0.00000000000e+00
5.35544884279e+07,5.53797307457e-01
*ELEMENT,TYPE=SPRINGA,ELSET=E1382
1382,1382,1383
*SPRING,ELSET=E1382,NONLINEAR
0.00000000000e+00,-6.41522879056e-01
0.00000000000e+00,-3.75624791489e-02
3.13567000000e+06,0.00000000000e+00
5.35535484279e+07,6.03960399908e-01
*ELEMENT,TYPE=SPRINGA,ELSET=E1383
1383,1383,1384
*SPRING,ELSET=E1383,NONLINEAR
0.00000000000e+00,-6.40887183082e-01
0.00000000000e+00,-3.74921324705e-02
3.13273000000e+06,0.00000000000e+00
5.35506084279e+07,6.03395050611e-01
*ELEMENT,TYPE=SPRINGA,ELSET=E1384
1384,1384,1385
*SPRING,ELSET=E1384,NONLINEAR
0.00000000000e+00,-5.87310309849e-01
0.00000000000e+00,-3.43490889074e-02
3.13188000000e+06,0.00000000000e+00
5.35497584279e+07,5.52961220941e-01
*ELEMENT,TYPE=SPRINGA,ELSET=E1385
1385,1385,1386
*SPRING,ELSET=E1385,NONLINEAR
0.00000000000e+00,-5.87151961064e-01
0.00000000000e+00,-3.43315690206e-02
3.13108000000e+06,0.00000000000e+00
5.35489584279e+07,5.52820392043e-01
*ELEMENT,TYPE=SPRINGA,ELSET=E1386
1386,1386,1387
*SPRING,ELSET=E1386,NONLINEAR
0.00000000000e+00,-5.86997488800e-01
0.00000000000e+00,-3.43144863773e-02
3.13030000000e+06,0.00000000000e+00
5.35481784279e+07,5.52683002423e-01
*ELEMENT,TYPE=SPRINGA,ELSET=E1387
1387,1387,1388
*SPRING,ELSET=E1387,NONLINEAR
0.00000000000e+00,-6.40189291042e-01
0.00000000000e+00,-3.74150606972e-02
3.12951000000e+06,0.00000000000e+00
5.35473884279e+07,6.02774230344e-01
*ELEMENT,TYPE=SPRINGA,ELSET=E1388
1388,1388,1389
*SPRING,ELSET=E1388,NONLINEAR
0.00000000000e+00,-5.85866352876e-01
0.00000000000e+00,-3.42153965856e-02
3.12710000000e+06,0.00000000000e+00
5.35449784279e+07,5.51650956290e-01
*ELEMENT,TYPE=SPRINGA,ELSET=E1389
1389,1389,1390
*SPRING,ELSET=E1389,NONLINEAR
0.00000000000e+00,-6.39515653594e-01
0.00000000000e+00,-3.73407168441e-02
3.12640000000e+06,0.00000000000e+00
5.35442784279e+07,6.02174936750e-01
*ELEMENT,TYPE=SPRINGA,ELSET=E1390
1390,1390,1391
*SPRING,ELSET=E1390,NONLINEAR
0.00000000000e+00,-6.39361776767e-01
0.00000000000e+00,-3.73237490646e-02
3.12569000000e+06,0.00000000000e+00
5.35435684279e+07,6.02038027703e-01
*ELEMENT,TYPE=SPRINGA,ELSET=E1391
1391,1391,1392
*SPRING,ELSET=E1391,NONLINEAR
0.00000000000e+00,-5.85950750649e-01
0.00000000000e+00,-3.41989953117e-02
3.12503000000e+06,0.00000000000e+00
5.35429084279e+07,5.51751755337e-01
*ELEMENT,TYPE=SPRINGA,ELSET=E1392
1392,1392,1393
*SPRING,ELSET=E1392,NONLINEAR
0.00000000000e+00,-5.12382446007e-02
0.00000000000e+00,-2.99021199809e-03
3.12469000000e+06,0.00000000000e+00
5.35425684279e+07,4.82480326026e-02
*ELEMENT,TYPE=SPRINGA,ELSET=E1393
1393,1393,1394
*SPRING,ELSET=E1393,NONLINEAR
0.00000000000e+00,-5.73168092417e-02
0.00000000000e+00,-3.45382854242e-03
3.23292000000e+06,0.00000000000e+00
5.36507984279e+07,5.38629806993e-02
*ELEMENT,TYPE=SPRINGA,ELSET=E1394
1394,1394,1395
*SPRING,ELSET=E1394,NONLINEAR
0.00000000000e+00,-2.73993864250e+00
0.00000000000e+00,-1.64871019928e-01
3.22805000000e+06,0.00000000000e+00
5.36459284279e+07,2.57506762257e+00
*ELEMENT,TYPE=SPRINGA,ELSET=E1395
1395,1008,16
*SPRING,ELSET=E1395,NONLINEAR
-5.04288000000e+07,-4.33703483278e-01
0.00000000000e+00,0.00000000000e+00
5.04288000000e+07,4.33703483278e-01
*ELEMENT,TYPE=SPRINGA,ELSET=E1396
1396,1013,29
*SPRING,ELSET=E1396,NONLINEAR
-5.04288000000e+07,-4.43919074540e-01
0.00000000000e+00,0.00000000000e+00
5.04288000000e+07,4.43919074540e-01
*ELEMENT,TYPE=SPRINGA,ELSET=E1397
1397,1018,42
*SPRING,ELSET=E1397,NONLINEAR
-5.04288000000e+07,-4.55675120827e-01
0.00000000000e+00,0.00000000000e+00
5.04288000000e+07,4.55675120827e-01
*ELEMENT,TYPE=SPRINGA,ELSET=E1398
1398,1023,55
*SPRING,ELSET=E1398,NONLINEAR
-5.04288000000e+07,-4.53613902254e-01
0.00000000000e+00,0.00000000000e+00
5.04288000000e+07,4.53613902254e-01
*ELEMENT,TYPE=SPRINGA,ELSET=E1399
1399,1028,68
*SPRING,ELSET=E1399,NONLINEAR
-5.04288000000e+07,-4.52907353637e-01
0.00000000000e+00,0.00000000000e+00
5.04288000000e+07,4.52907353637e-01
*ELEMENT,TYPE=SPRINGA,ELSET=E1400
1400,1033,81
*SPRING,ELSET=E1400,NONLINEAR
-5.04288000000e+07,-4.53495787401e-01
0.00000000000e+00,0.00000000000e+00
5.04288000000e+07,4.53495787401e-01
*ELEMENT,TYPE=SPRINGA,ELSET=E1401
1401,1038,94
*SPRING,ELSET=E1401,NONLINEAR
-5.04288000000e+07,-4.40045393899e-01
0.00000000000e+00,0.00000000000e+00
5.04288000000e+07,4.40045393899e-01
*ELEMENT,TYPE=SPRINGA,ELSET=E1402
1402,1043,107
*SPRING,ELSET=E1402,NONLINEAR
-5.04288000000e+07,-4.27461986663e-01
0.00000000000e+00,0.00000000000e+00
5.04288000000e+07,4.27461986663e-01
*ELEMENT,TYPE=SPRINGA,ELSET=E1403
1403,1048,120
*SPRING,ELSET=E1403,NONLINEAR
-5.04288000000e+07,-4.16386802233e-01
0.00000000000e+00,0.00000000000e+00
5.04288000000e+07,4.16386802233e-01
*ELEMENT,TYPE=SPRINGA,ELSET=E1404
1404,1053,133
*SPRING,ELSET=E1404,NONLINEAR
-5.04288000000e+07,-3.90488265340e-01
0.00000000000e+00,0.00000000000e+00
5.04288000000e+07,3.90488265340e-01
*ELEMENT,TYPE=SPRINGA,ELSET=E1405
1405,1058,146
*SPRING,ELSET=E1405,NONLINEAR
-5.04288000000e+07,-3.65864454964e-01
0.00000000000e+00,0.00000000000e+00
5.04288000000e+07,3.65864454964e-01
*ELEMENT,TYPE=SPRINGA,ELSET=E1406
1406,1073,166
*SPRING,ELSET=E1406,NONLINEAR
-5.04288000000e+07,-4.41840910550e-01
0.00000000000e+00,0.00000000000e+00
5.04288000000e+07,4.41840910550e-01
*ELEMENT,TYPE=SPRINGA,ELSET=E1407
1407,1078,173
*SPRING,ELSET=E1407,NONLINEAR
-5.04288000000e+07,-4.43688839121e-01
0.00000000000e+00,0.00000000000e+00
5.04288000000e+07,4.43688839121e-01
*ELEMENT,TYPE=SPRINGA,ELSET=E1408
1408,1083,180
*SPRING,ELSET=E1408,NONLINEAR
-5.04288000000e+07,-4.49378204161e-01
0.00000000000e+00,0.00000000000e+00
5.04288000000e+07,4.49378204161e-01
*ELEMENT,TYPE=SPRINGA,ELSET=E1409
1409,1088,187
*SPRING,ELSET=E1409,NONLINEAR
-5.04288000000e+07,-4.44637968065e-01
0.00000000000e+00,0.00000000000e+00
5.04288000000e+07,4.44637968065e-01
*ELEMENT,TYPE=SPRINGA,ELSET=E1410
1410,1093,194
*SPRING,ELSET=E1410,NONLINEAR
-5.04288000000e+07,-4.43864804372e-01
0.00000000000e+00,0.00000000000e+00
5.04288000000e+07,4.43864804372e-01
*ELEMENT,TYPE=SPRINGA,ELSET=E1411
1411,1098,201
*SPRING,ELSET=E1411,NONLINEAR
-5.04288000000e+07,-4.47098587559e-01
0.00000000000e+00,0.00000000000e+00
5.04288000000e+07,4.47098587559e-01
*ELEMENT,TYPE=SPRINGA,ELSET=E1412
1412,1103,208
*SPRING,ELSET=E1412,NONLINEAR
-5.04288000000e+07,-4.39975698706e-01
0.00000000000e+00,0.00000000000e+00
5.04288000000e+07,4.39975698706e-01
*ELEMENT,TYPE=SPRINGA,ELSET=E1413
1413,1108,215
*SPRING,ELSET=E1413,NONLINEAR
-5.04288000000e+07,-4.36963770091e-01
0.00000000000e+00,0.00000000000e+00
5.04288000000e+07,4.36963770091e-01
*ELEMENT,TYPE=SPRINGA,ELSET=E1414
1414,1113,222
*SPRING,ELSET=E1414,NONLINEAR
-5.04288000000e+07,-4.38096546009e-01
0.00000000000e+00,0.00000000000e+00
5.04288000000e+07,4.38096546009e-01
*ELEMENT,TYPE=SPRINGA,ELSET=E1415
1415,1118,229
*SPRING,ELSET=E1415,NONLINEAR
-5.04288000000e+07,-4.28916845659e-01
0.00000000000e+00,0.00000000000e+00
5.04288000000e+07,4.28916845659e-01
*ELEMENT,TYPE=SPRINGA,ELSET=E1416
1416,1123,236
*SPRING,ELSET=E1416,NONLINEAR
-5.04288000000e+07,-4.23964169624e-01
0.00000000000e+00,0.00000000000e+00
5.04288000000e+07,4.23964169624e-01
*ELEMENT,TYPE=SPRINGA,ELSET=E1417
1417,1128,243
*SPRING,ELSET=E1417,NONLINEAR
-5.04288000000e+07,-4.23267344253e-01
0.00000000000e+00,0.00000000000e+00
5.04288000000e+07,4.23267344253e-01
*ELEMENT,TYPE=SPRINGA,ELSET=E1418
1418,1133,249
*SPRING,ELSET=E1418,NONLINEAR
-5.04288000000e+07,-4.13974184882e-01
0.00000000000e+00,0.00000000000e+00
5.04288000000e+07,4.13974184882e-01
*ELEMENT,TYPE=SPRINGA,ELSET=E1419
1419,1138,256
*SPRING,ELSET=E1419,NONLINEAR
-5.04288000000e+07,-4.09595684800e-01
0.00000000000e+00,0.00000000000e+00
5.04288000000e+07,4.09595684800e-01
*ELEMENT,TYPE=SPRINGA,ELSET=E1420
1420,1143,262
*SPRING,ELSET=E1420,NONLINEAR
-5.04288000000e+07,-4.10348798317e-01
0.00000000000e+00,0.00000000000e+00
5.04288000000e+07,4.10348798317e-01
*ELEMENT,TYPE=SPRINGA,ELSET=E1421
1421,1148,269
*SPRING,ELSET=E1421,NONLINEAR
-5.04288000000e+07,-4.03082302419e-01
0.00000000000e+00,0.00000000000e+00
5.04288000000e+07,4.03082302419e-01
*ELEMENT,TYPE=SPRINGA,ELSET=E1422
1422,1153,276
*SPRING,ELSET=E1422,NONLINEAR
-5.04288000000e+07,-4.00829751909e-01
0.00000000000e+00,0.00000000000e+00
5.04288000000e+07,4.00829751909e-01
*ELEMENT,TYPE=SPRINGA,ELSET=E1423
1423,1158,283
*SPRING,ELSET=E1423,NONLINEAR
-5.04288000000e+07,-4.03400066720e-01
0.00000000000e+00,0.00000000000e+00
5.04288000000e+07,4.03400066720e-01
*ELEMENT,TYPE=SPRINGA,ELSET=E1424
1424,1163,289
*SPRING,ELSET=E1424,NONLINEAR
-5.04288000000e+07,-3.97218385243e-01
0.00000000000e+00,0.00000000000e+00
5.04288000000e+07,3.97218385243e-01
*ELEMENT,TYPE=SPRINGA,ELSET=E1425
1425,1168,296
*SPRING,ELSET=E1425,NONLINEAR
-5.04288000000e+07,-3.96043434709e-01
0.00000000000e+00,0.00000000000e+00
5.04288000000e+07,3.96043434709e-01
*ELEMENT,TYPE=SPRINGA,ELSET=E1426
1426,1173,302
*SPRING,ELSET=E1426,NONLINEAR
-5.04288000000e+07,-4.00000225782e-01
0.00000000000e+00,0.00000000000e+00
5.04288000000e+07,4.00000225782e-01
*ELEMENT,TYPE=SPRINGA,ELSET=E1427
1427,1178,308
*SPRING,ELSET=E1427,NONLINEAR
-5.04288000000e+07,-3.95946221799e-01
0.00000000000e+00,0.00000000000e+00
5.04288000000e+07,3.95946221799e-01
*ELEMENT,TYPE=SPRINGA,ELSET=E1428
1428,1183,315
*SPRING,ELSET=E1428,NONLINEAR
-5.04288000000e+07,-3.96997835008e-01
0.00000000000e+00,0.00000000000e+00
5.04288000000e+07,3.96997835008e-01
*ELEMENT,TYPE=SPRINGA,ELSET=E1429
1429,1188,321
*SPRING,ELSET=E1429,NONLINEAR
-5.04288000000e+07,-4.03004358739e-01
0.00000000000e+00,0.00000000000e+00
5.04288000000e+07,4.03004358739e-01
*ELEMENT,TYPE=SPRINGA,ELSET=E1430
1430,1193,328
*SPRING,ELSET=E1430,NONLINEAR
-5.04288000000e+07,-4.01206380639e-01
0.00000000000e+00,0.00000000000e+00
5.04288000000e+07,4.01206380639e-01
*ELEMENT,TYPE=SPRINGA,ELSET=E1431
1431,1198,335
*SPRING,ELSET=E1431,NONLINEAR
-5.04288000000e+07,-4.04425062140e-01
0.00000000000e+00,0.00000000000e+00
5.04288000000e+07,4.04425062140e-01
*ELEMENT,TYPE=SPRINGA,ELSET=E1432
1432,1203,342
*SPRING,ELSET=E1432,NONLINEAR
-5.04288000000e+07,-4.12896877186e-01
0.00000000000e+00,0.00000000000e+00
5.04288000000e+07,4.12896877186e-01
*ELEMENT,TYPE=SPRINGA,ELSET=E1433
1433,1208,348
*SPRING,ELSET=E1433,NONLINEAR
-5.04288000000e+07,-4.12184903144e-01
0.00000000000e+00,0.00000000000e+00
5.04288000000e+07,4.12184903144e-01
*ELEMENT,TYPE=SPRINGA,ELSET=E1434
1434,1213,355
*SPRING,ELSET=E1434,NONLINEAR
-5.04288000000e+07,-4.16438831891e-01
0.00000000000e+00,0.00000000000e+00
5.04288000000e+07,4.16438831891e-01
*ELEMENT,TYPE=SPRINGA,ELSET=E1435
1435,1218,361
*SPRING,ELSET=E1435,NONLINEAR
-5.04288000000e+07,-4.25573413437e-01
0.00000000000e+00,0.00000000000e+00
5.04288000000e+07,4.25573413437e-01
*ELEMENT,TYPE=SPRINGA,ELSET=E1436
1436,1223,368
*SPRING,ELSET=E1436,NONLINEAR
-5.04288000000e+07,-4.26390321093e-01
0.00000000000e+00,0.00000000000e+00
5.04288000000e+07,4.26390321093e-01
*ELEMENT,TYPE=SPRINGA,ELSET=E1437
1437,1228,375
*SPRING,ELSET=E1437,NONLINEAR
-5.04288000000e+07,-4.31613992238e-01
0.00000000000e+00,0.00000000000e+00
5.04288000000e+07,4.31613992238e-01
*ELEMENT,TYPE=SPRINGA,ELSET=E1438
1438,1233,382
*SPRING,ELSET=E1438,NONLINEAR
-5.04288000000e+07,-4.41263861749e-01
0.00000000000e+00,0.00000000000e+00
5.04288000000e+07,4.41263861749e-01
*ELEMENT,TYPE=SPRINGA,ELSET=E1439
1439,1238,389
*SPRING,ELSET=E1439,NONLINEAR
-5.04288000000e+07,-4.40198971066e-01
0.00000000000e+00,0.00000000000e+00
5.04288000000e+07,4.40198971066e-01
*ELEMENT,TYPE=SPRINGA,ELSET=E1440
1440,1243,396
*SPRING,ELSET=E1440,NONLINEAR
-5.04288000000e+07,-4.43484483108e-01
0.00000000000e+00,0.00000000000e+00
5.04288000000e+07,4.43484483108e-01
*ELEMENT,TYPE=SPRINGA,ELSET=E1441
1441,1248,403
*SPRING,ELSET=E1441,NONLINEAR
-5.04288000000e+07,-4.51135447333e-01
0.00000000000e+00,0.00000000000e+00
5.04288000000e+07,4.51135447333e-01
*ELEMENT,TYPE=SPRINGA,ELSET=E1442
1442,1253,410
*SPRING,ELSET=E1442,NONLINEAR
-5.04288000000e+07,-4.47917519796e-01
0.00000000000e+00,0.00000000000e+00
5.04288000000e+07,4.47917519796e-01
*ELEMENT,TYPE=SPRINGA,ELSET=E1443
1443,1258,417
*SPRING,ELSET=E1443,NONLINEAR
-5.04288000000e+07,-4.48967554957e-01
0.00000000000e+00,0.00000000000e+00
5.04288000000e+07,4.48967554957e-01
*ELEMENT,TYPE=SPRINGA,ELSET=E1444
1444,1263,424
*SPRING,ELSET=E1444,NONLINEAR
-5.04288000000e+07,-4.54295147607e-01
0.00000000000e+00,0.00000000000e+00
5.04288000000e+07,4.54295147607e-01
*ELEMENT,TYPE=SPRINGA,ELSET=E1445
1445,1268,431
*SPRING,ELSET=E1445,NONLINEAR
-5.04288000000e+07,-4.48571559985e-01
0.00000000000e+00,0.00000000000e+00
5.04288000000e+07,4.48571559985e-01
*ELEMENT,TYPE=SPRINGA,ELSET=E1446
1446,1273,438
*SPRING,ELSET=E1446,NONLINEAR
-5.04288000000e+07,-4.47006377945e-01
0.00000000000e+00,0.00000000000e+00
5.04288000000e+07,4.47006377945e-01
*ELEMENT,TYPE=SPRINGA,ELSET=E1447
1447,1290,461
*SPRING,ELSET=E1447,NONLINEAR
-5.04288000000e+07,-3.96506019919e-01
0.00000000000e+00,0.00000000000e+00
5.04288000000e+07,3.96506019919e-01
*ELEMENT,TYPE=SPRINGA,ELSET=E1448
1448,1295,475
*SPRING,ELSET=E1448,NONLINEAR
-5.04288000000e+07,-4.16224647105e-01
0.00000000000e+00,0.00000000000e+00
5.04288000000e+07,4.16224647105e-01
*ELEMENT,TYPE=SPRINGA,ELSET=E1449
1449,1300,488
*SPRING,ELSET=E1449,NONLINEAR
-5.04288000000e+07,-4.36657847861e-01
0.00000000000e+00,0.00000000000e+00
5.04288000000e+07,4.36657847861e-01
*ELEMENT,TYPE=SPRINGA,ELSET=E1450
1450,1305,501
*SPRING,ELSET=E1450,NONLINEAR
-5.04288000000e+07,-4.41927053912e-01
0.00000000000e+00,0.00000000000e+00
5.04288000000e+07,4.41927053912e-01
*ELEMENT,TYPE=SPRINGA,ELSET=E1451
1451,1310,515
*SPRING,ELSET=E1451,NONLINEAR
-5.04288000000e+07,-4.48129342184e-01
0.00000000000e+00,0.00000000000e+00
5.04288000000e+07,4.48129342184e-01
*ELEMENT,TYPE=SPRINGA,ELSET=E1452
1452,1315,528
*SPRING,ELSET=E1452,NONLINEAR
-5.04288000000e+07,-4.55321118917e-01
0.00000000000e+00,0.00000000000e+00
5.04288000000e+07,4.55321118917e-01
*ELEMENT,TYPE=SPRINGA,ELSET=E1453
1453,1320,541
*SPRING,ELSET=E1453,NONLINEAR
-5.04288000000e+07,-4.47592089337e-01
0.00000000000e+00,0.00000000000e+00
5.04288000000e+07,4.47592089337e-01
*ELEMENT,TYPE=SPRINGA,ELSET=E1454
1454,1325,555
*SPRING,ELSET=E1454,NONLINEAR
-5.04288000000e+07,-4.41015407771e-01
0.00000000000e+00,0.00000000000e+00
5.04288000000e+07,4.41015407771e-01
*ELEMENT,TYPE=SPRINGA,ELSET=E1455
1455,1330,568
*SPRING,ELSET=E1455,NONLINEAR
-5.04288000000e+07,-4.35631850652e-01
0.00000000000e+00,0.00000000000e+00
5.04288000000e+07,4.35631850652e-01
*ELEMENT,TYPE=SPRINGA,ELSET=E1456
1456,1335,581
*SPRING,ELSET=E1456,NONLINEAR
-5.04288000000e+07,-4.15492331004e-01
0.00000000000e+00,0.00000000000e+00
5.04288000000e+07,4.15492331004e-01
*ELEMENT,TYPE=SPRINGA,ELSET=E1457
1457,1340,595
*SPRING,ELSET=E1457,NONLINEAR
-5.04288000000e+07,-3.96671338859e-01
0.00000000000e+00,0.00000000000e+00
5.04288000000e+07,3.96671338859e-01
*ELEMENT,TYPE=SPRINGA,ELSET=E1458
1458,1353,620
*SPRING,ELSET=E1458,NONLINEAR
-5.04288000000e+07,-3.89313370316e-01
0.00000000000e+00,0.00000000000e+00
5.04288000000e+07,3.89313370316e-01
*ELEMENT,TYPE=SPRINGA,ELSET=E1459
1459,1358,633
*SPRING,ELSET=E1459,NONLINEAR
-5.04288000000e+07,-4.05605986955e-01
0.00000000000e+00,0.00000000000e+00
5.04288000000e+07,4.05605986955e-01
*ELEMENT,TYPE=SPRINGA,ELSET=E1460
1460,1363,646
*SPRING,ELSET=E1460,NONLINEAR
-5.04288000000e+07,-4.23591252392e-01
0.00000000000e+00,0.00000000000e+00
5.04288000000e+07,4.23591252392e-01
*ELEMENT,TYPE=SPRINGA,ELSET=E1461
1461,1368,659
*SPRING,ELSET=E1461,NONLINEAR
-5.04288000000e+07,-4.28479140301e-01
0.00000000000e+00,0.00000000000e+00
5.04288000000e+07,4.28479140301e-01
*ELEMENT,TYPE=SPRINGA,ELSET=E1462
1462,1373,672
*SPRING,ELSET=E1462,NONLINEAR
-5.04288000000e+07,-4.35207838897e-01
0.00000000000e+00,0.00000000000e+00
5.04288000000e+07,4.35207838897e-01
*ELEMENT,TYPE=SPRINGA,ELSET=E1463
1463,1378,685
*SPRING,ELSET=E1463,NONLINEAR
-5.04288000000e+07,-4.44007833377e-01
0.00000000000e+00,0.00000000000e+00
5.04288000000e+07,4.44007833377e-01
*ELEMENT,TYPE=SPRINGA,ELSET=E1464
1464,1383,698
*SPRING,ELSET=E1464,NONLINEAR
-5.04288000000e+07,-4.39649770109e-01
0.00000000000e+00,0.00000000000e+00
5.04288000000e+07,4.39649770109e-01
*ELEMENT,TYPE=SPRINGA,ELSET=E1465
1465,1388,711
*SPRING,ELSET=E1465,NONLINEAR
-5.04288000000e+07,-4.37382472987e-01
0.00000000000e+00,0.00000000000e+00
5.04288000000e+07,4.37382472987e-01
*ELEMENT,TYPE=MASS,ELSET=M1
20000,1
*MASS,ELSET=M1
4.84784229028e+03
*ELEMENT,TYPE=MASS,ELSET=M2
20001,2
*MASS,ELSET=M2
5.06135914034e+03
*ELEMENT,TYPE=MASS,ELSET=M3
20002,3
*MASS,ELSET=M3
3.92345083969e+02
*ELEMENT,TYPE=MASS,ELSET=M4
20003,4
*MASS,ELSET=M4
6.95835067052e+02
*ELEMENT,TYPE=MASS,ELSET=M5
20004,5
*MASS,ELSET=M5
6.70089051154e+02
*ELEMENT,TYPE=MASS,ELSET=M6
20005,6
*MASS,ELSET=M6
3.17286740506e+02
*ELEMENT,TYPE=MASS,ELSET=M7
20006,7
*MASS,ELSET=M7
9.02722272881e+02
*ELEMENT,TYPE=MASS,ELSET=M8
20007,8
*MASS,ELSET=M8
7.87427563843e+03
*ELEMENT,TYPE=MASS,ELSET=M9
20008,9
*MASS,ELSET=M9
1.88682011726e+03
*ELEMENT,TYPE=MASS,ELSET=M10
20009,10
*MASS,ELSET=M10
1.46778730464e+03
*ELEMENT,TYPE=MASS,ELSET=M11
20010,11
*MASS,ELSET=M11
1.01255301218e+03
*ELEMENT,TYPE=MASS,ELSET=M12
20011,12
*MASS,ELSET=M12
1.46892040218e+03
*ELEMENT,TYPE=MASS,ELSET=M13
20012,13
*MASS,ELSET=M13
2.03785779694e+03
*ELEMENT,TYPE=MASS,ELSET=M14
20013,14
*MASS,ELSET=M14
1.47008099545e+03
*ELEMENT,TYPE=MASS,ELSET=M15
20014,15
*MASS,ELSET=M15
1.01408893423e+03
*ELEMENT,TYPE=MASS,ELSET=M16
20015,16
*MASS,ELSET=M16
1.79561031081e+03
*ELEMENT,TYPE=MASS,ELSET=M17
20016,17
*MASS,ELSET=M17
2.04112666828e+03
*ELEMENT,TYPE=MASS,ELSET=M18
20017,18
*MASS,ELSET=M18
1.47254354125e+03
*ELEMENT,TYPE=MASS,ELSET=M19
20018,19
*MASS,ELSET=M19
1.01573780497e+03
*ELEMENT,TYPE=MASS,ELSET=M20
20019,20
*MASS,ELSET=M20
1.47371845614e+03
*ELEMENT,TYPE=MASS,ELSET=M21
20020,21
*MASS,ELSET=M21
2.04428344397e+03
*ELEMENT,TYPE=MASS,ELSET=M22
20021,22
*MASS,ELSET=M22
1.47492146676e+03
*ELEMENT,TYPE=MASS,ELSET=M23
20022,23
*MASS,ELSET=M23
1.01732990239e+03
*ELEMENT,TYPE=MASS,ELSET=M24
20023,24
*MASS,ELSET=M24
1.47611677087e+03
*ELEMENT,TYPE=MASS,ELSET=M25
20024,25
*MASS,ELSET=M25
2.04749496273e+03
*ELEMENT,TYPE=MASS,ELSET=M26
20025,26
*MASS,ELSET=M26
1.47734046137e+03
*ELEMENT,TYPE=MASS,ELSET=M27
20026,27
*MASS,ELSET=M27
1.01894938844e+03
*ELEMENT,TYPE=MASS,ELSET=M28
20027,28
*MASS,ELSET=M28
1.03044520147e+03
*ELEMENT,TYPE=MASS,ELSET=M29
20028,29
*MASS,ELSET=M29
1.22043148424e+03
*ELEMENT,TYPE=MASS,ELSET=M30
20029,30
*MASS,ELSET=M30
1.60290595129e+03
*ELEMENT,TYPE=MASS,ELSET=M31
20030,31
*MASS,ELSET=M31
1.47993456251e+03
*ELEMENT,TYPE=MASS,ELSET=M32
20031,32
*MASS,ELSET=M32
1.02068599057e+03
*ELEMENT,TYPE=MASS,ELSET=M33
20032,33
*MASS,ELSET=M33
1.48117181582e+03
*ELEMENT,TYPE=MASS,ELSET=M34
20033,34
*MASS,ELSET=M34
2.05426333658e+03
*ELEMENT,TYPE=MASS,ELSET=M35
20034,35
*MASS,ELSET=M35
1.48243804983e+03
*ELEMENT,TYPE=MASS,ELSET=M36
20035,36
*MASS,ELSET=M36
1.02236182414e+03
*ELEMENT,TYPE=MASS,ELSET=M37
20036,37
*MASS,ELSET=M37
1.48369576120e+03
*ELEMENT,TYPE=MASS,ELSET=M38
20037,38
*MASS,ELSET=M38
2.05764240163e+03
*ELEMENT,TYPE=MASS,ELSET=M39
20038,39
*MASS,ELSET=M39
1.48498274126e+03
*ELEMENT,TYPE=MASS,ELSET=M40
20039,40
*MASS,ELSET=M40
1.02406513648e+03
*ELEMENT,TYPE=MASS,ELSET=M41
20040,41
*MASS,ELSET=M41
1.48626093414e+03
*ELEMENT,TYPE=MASS,ELSET=M42
20041,42
*MASS,ELSET=M42
8.95579214409e+03
*ELEMENT,TYPE=MASS,ELSET=M43
20042,43
*MASS,ELSET=M43
1.49056799395e+03
*ELEMENT,TYPE=MASS,ELSET=M44
20043,44
*MASS,ELSET=M44
1.02780333418e+03
*ELEMENT,TYPE=MASS,ELSET=M45
20044,45
*MASS,ELSET=M45
1.49189010540e+03
*ELEMENT,TYPE=MASS,ELSET=M46
20045,46
*MASS,ELSET=M46
2.06861163452e+03
*ELEMENT,TYPE=MASS,ELSET=M47
20046,47
*MASS,ELSET=M47
1.49324238347e+03
*ELEMENT,TYPE=MASS,ELSET=M48
20047,48
*MASS,ELSET=M48
1.02959314137e+03
*ELEMENT,TYPE=MASS,ELSET=M49
20048,49
*MASS,ELSET=M49
1.49458505280e+03
*ELEMENT,TYPE=MASS,ELSET=M50
20049,50
*MASS,ELSET=M50
2.07221876062e+03
*ELEMENT,TYPE=MASS,ELSET=M51
20050,51
*MASS,ELSET=M51
1.49595817264e+03
*ELEMENT,TYPE=MASS,ELSET=M52
20051,52
*MASS,ELSET=M52
1.03141055774e+03
*ELEMENT,TYPE=MASS,ELSET=M53
20052,53
*MASS,ELSET=M53
1.49732142496e+03
*ELEMENT,TYPE=MASS,ELSET=M54
20053,54
*MASS,ELSET=M54
1.62118735492e+03
*ELEMENT,TYPE=MASS,ELSET=M55
20054,55
*MASS,ELSET=M55
1.23359402496e+03
*ELEMENT,TYPE=MASS,ELSET=M56
20055,56
*MASS,ELSET=M56
1.04425987951e+03
*ELEMENT,TYPE=MASS,ELSET=M57
20056,57
*MASS,ELSET=M57
1.03335818568e+03
*ELEMENT,TYPE=MASS,ELSET=M58
20057,58
*MASS,ELSET=M58
1.50025021510e+03
*ELEMENT,TYPE=MASS,ELSET=M59
20058,59
*MASS,ELSET=M59
2.07979852519e+03
*ELEMENT,TYPE=MASS,ELSET=M60
20059,60
*MASS,ELSET=M60
1.50166616561e+03
*ELEMENT,TYPE=MASS,ELSET=M61
20060,61
*MASS,ELSET=M61
1.03523230008e+03
*ELEMENT,TYPE=MASS,ELSET=M62
20061,62
*MASS,ELSET=M62
1.50307175569e+03
*ELEMENT,TYPE=MASS,ELSET=M63
20062,63
*MASS,ELSET=M63
2.08357455468e+03
*ELEMENT,TYPE=MASS,ELSET=M64
20063,64
*MASS,ELSET=M64
1.50450862220e+03
*ELEMENT,TYPE=MASS,ELSET=M65
20064,65
*MASS,ELSET=M65
1.03713412383e+03
*ELEMENT,TYPE=MASS,ELSET=M66
20065,66
*MASS,ELSET=M66
1.50593487459e+03
*ELEMENT,TYPE=MASS,ELSET=M67
20066,67
*MASS,ELSET=M67
2.08740603975e+03
*ELEMENT,TYPE=MASS,ELSET=M68
20067,68
*MASS,ELSET=M68
1.83173537369e+03
*ELEMENT,TYPE=MASS,ELSET=M69
20068,69
*MASS,ELSET=M69
1.03916669680e+03
*ELEMENT,TYPE=MASS,ELSET=M70
20069,70
*MASS,ELSET=M70
1.50899468287e+03
*ELEMENT,TYPE=MASS,ELSET=M71
20070,71
*MASS,ELSET=M71
2.09150053775e+03
*ELEMENT,TYPE=MASS,ELSET=M72
20071,72
*MASS,ELSET=M72
1.51047457067e+03
*ELEMENT,TYPE=MASS,ELSET=M73
20072,73
*MASS,ELSET=M73
1.04112551810e+03
*ELEMENT,TYPE=MASS,ELSET=M74
20073,74
*MASS,ELSET=M74
1.51194332757e+03
*ELEMENT,TYPE=MASS,ELSET=M75
20074,75
*MASS,ELSET=M75
2.09544609397e+03
*ELEMENT,TYPE=MASS,ELSET=M76
20075,76
*MASS,ELSET=M76
1.51344421121e+03
*ELEMENT,TYPE=MASS,ELSET=M77
20076,77
*MASS,ELSET=M77
1.04311215768e+03
*ELEMENT,TYPE=MASS,ELSET=M78
20077,78
*MASS,ELSET=M78
1.51493371401e+03
*ELEMENT,TYPE=MASS,ELSET=M79
20078,79
*MASS,ELSET=M79
2.09944732402e+03
*ELEMENT,TYPE=MASS,ELSET=M80
20079,80
*MASS,ELSET=M80
1.51645562036e+03
*ELEMENT,TYPE=MASS,ELSET=M81
20080,81
*MASS,ELSET=M81
7.93898929276e+03
*ELEMENT,TYPE=MASS,ELSET=M82
20081,82
*MASS,ELSET=M82
1.52140532879e+03
*ELEMENT,TYPE=MASS,ELSET=M83
20082,83
*MASS,ELSET=M83
2.10810595778e+03
*ELEMENT,TYPE=MASS,ELSET=M84
20083,84
*MASS,ELSET=M84
1.52297185123e+03
*ELEMENT,TYPE=MASS,ELSET=M85
20084,85
*MASS,ELSET=M85
1.04948542748e+03
*ELEMENT,TYPE=MASS,ELSET=M86
20085,86
*MASS,ELSET=M86
1.52452622357e+03
*ELEMENT,TYPE=MASS,ELSET=M87
20086,87
*MASS,ELSET=M87
2.11228125683e+03
*ELEMENT,TYPE=MASS,ELSET=M88
20087,88
*MASS,ELSET=M88
1.52611385560e+03
*ELEMENT,TYPE=MASS,ELSET=M89
20088,89
*MASS,ELSET=M89
1.05158701594e+03
*ELEMENT,TYPE=MASS,ELSET=M90
20089,90
*MASS,ELSET=M90
1.52768909343e+03
*ELEMENT,TYPE=MASS,ELSET=M91
20090,91
*MASS,ELSET=M91
2.11651254159e+03
*ELEMENT,TYPE=MASS,ELSET=M92
20091,92
*MASS,ELSET=M92
1.52929786381e+03
*ELEMENT,TYPE=MASS,ELSET=M93
20092,93
*MASS,ELSET=M93
1.05371661715e+03
*ELEMENT,TYPE=MASS,ELSET=M94
20093,94
*MASS,ELSET=M94
1.85529767450e+03
*ELEMENT,TYPE=MASS,ELSET=M95
20094,95
*MASS,ELSET=M95
2.12102524102e+03
*ELEMENT,TYPE=MASS,ELSET=M96
20095,96
*MASS,ELSET=M96
1.53269349939e+03
*ELEMENT,TYPE=MASS,ELSET=M97
20096,97
*MASS,ELSET=M97
1.05598767645e+03
*ELEMENT,TYPE=MASS,ELSET=M98
20097,98
*MASS,ELSET=M98
1.53431165243e+03
*ELEMENT,TYPE=MASS,ELSET=M99
20098,99
*MASS,ELSET=M99
2.12537166758e+03
*ELEMENT,TYPE=MASS,ELSET=M100
20099,100
*MASS,ELSET=M100
1.53596389457e+03
*ELEMENT,TYPE=MASS,ELSET=M101
20100,101
*MASS,ELSET=M101
1.05817489086e+03
*ELEMENT,TYPE=MASS,ELSET=M102
20101,102
*MASS,ELSET=M102
1.53760300656e+03
*ELEMENT,TYPE=MASS,ELSET=M103
20102,103
*MASS,ELSET=M103
2.12977432368e+03
*ELEMENT,TYPE=MASS,ELSET=M104
20103,104
*MASS,ELSET=M104
1.53927647723e+03
*ELEMENT,TYPE=MASS,ELSET=M105
20104,105
*MASS,ELSET=M105
1.06039024123e+03
*ELEMENT,TYPE=MASS,ELSET=M106
20105,106
*MASS,ELSET=M106
1.07344066422e+03
*ELEMENT,TYPE=MASS,ELSET=M107
20106,107
*MASS,ELSET=M107
1.26208291782e+03
*ELEMENT,TYPE=MASS,ELSET=M108
20107,108
*MASS,ELSET=M108
1.66417211325e+03
*ELEMENT,TYPE=MASS,ELSET=M109
20108,109
*MASS,ELSET=M109
1.54280641661e+03
*ELEMENT,TYPE=MASS,ELSET=M110
20109,110
*MASS,ELSET=M110
1.06275086918e+03
*ELEMENT,TYPE=MASS,ELSET=M111
20110,111
*MASS,ELSET=M111
1.54448863250e+03
*ELEMENT,TYPE=MASS,ELSET=M112
20111,112
*MASS,ELSET=M112
2.13898432408e+03
*ELEMENT,TYPE=MASS,ELSET=M113
20112,113
*MASS,ELSET=M113
1.54620575752e+03
*ELEMENT,TYPE=MASS,ELSET=M114
20113,114
*MASS,ELSET=M114
1.06502408147e+03
*ELEMENT,TYPE=MASS,ELSET=M115
20114,115
*MASS,ELSET=M115
1.54790902994e+03
*ELEMENT,TYPE=MASS,ELSET=M116
20115,116
*MASS,ELSET=M116
2.14355909914e+03
*ELEMENT,TYPE=MASS,ELSET=M117
20116,117
*MASS,ELSET=M117
1.54964747820e+03
*ELEMENT,TYPE=MASS,ELSET=M118
20117,118
*MASS,ELSET=M118
1.06732555874e+03
*ELEMENT,TYPE=MASS,ELSET=M119
20118,119
*MASS,ELSET=M119
1.55137184009e+03
*ELEMENT,TYPE=MASS,ELSET=M120
20119,120
*MASS,ELSET=M120
9.04347827577e+03
*ELEMENT,TYPE=MASS,ELSET=M121
20120,121
*MASS,ELSET=M121
1.55698906948e+03
*ELEMENT,TYPE=MASS,ELSET=M122
20121,122
*MASS,ELSET=M122
1.07223463707e+03
*ELEMENT,TYPE=MASS,ELSET=M123
20122,123
*MASS,ELSET=M123
1.55875768405e+03
*ELEMENT,TYPE=MASS,ELSET=M124
20123,124
*MASS,ELSET=M124
2.15806816496e+03
*ELEMENT,TYPE=MASS,ELSET=M125
20124,125
*MASS,ELSET=M125
1.56056229289e+03
*ELEMENT,TYPE=MASS,ELSET=M126
20125,126
*MASS,ELSET=M126
1.07462382019e+03
*ELEMENT,TYPE=MASS,ELSET=M127
20126,127
*MASS,ELSET=M127
1.56235210191e+03
*ELEMENT,TYPE=MASS,ELSET=M128
20127,128
*MASS,ELSET=M128
2.16287505279e+03
*ELEMENT,TYPE=MASS,ELSET=M129
20128,129
*MASS,ELSET=M129
1.56417816757e+03
*ELEMENT,TYPE=MASS,ELSET=M130
20129,130
*MASS,ELSET=M130
1.07704144990e+03
*ELEMENT,TYPE=MASS,ELSET=M131
20130,131
*MASS,ELSET=M131
1.56598920566e+03
*ELEMENT,TYPE=MASS,ELSET=M132
20131,132
*MASS,ELSET=M132
1.69148704530e+03
*ELEMENT,TYPE=MASS,ELSET=M133
20132,133
*MASS,ELSET=M133
1.27963673069e+03
*ELEMENT,TYPE=MASS,ELSET=M134
20133,134
*MASS,ELSET=M134
1.08893198021e+03
*ELEMENT,TYPE=MASS,ELSET=M135
20134,135
*MASS,ELSET=M135
1.07961309001e+03
*ELEMENT,TYPE=MASS,ELSET=M136
20135,136
*MASS,ELSET=M136
1.56985788651e+03
*ELEMENT,TYPE=MASS,ELSET=M137
20136,137
*MASS,ELSET=M137
2.17291222587e+03
*ELEMENT,TYPE=MASS,ELSET=M138
20137,138
*MASS,ELSET=M138
1.57172806618e+03
*ELEMENT,TYPE=MASS,ELSET=M139
20138,139
*MASS,ELSET=M139
1.08208920806e+03
*ELEMENT,TYPE=MASS,ELSET=M140
20139,140
*MASS,ELSET=M140
1.57358275640e+03
*ELEMENT,TYPE=MASS,ELSET=M141
20140,141
*MASS,ELSET=M141
2.17789311664e+03
*ELEMENT,TYPE=MASS,ELSET=M142
20141,142
*MASS,ELSET=M142
1.57547449750e+03
*ELEMENT,TYPE=MASS,ELSET=M143
20142,143
*MASS,ELSET=M143
1.08459391487e+03
*ELEMENT,TYPE=MASS,ELSET=M144
20143,144
*MASS,ELSET=M144
1.57735052636e+03
*ELEMENT,TYPE=MASS,ELSET=M145
20144,145
*MASS,ELSET=M145
2.18293122983e+03
*ELEMENT,TYPE=MASS,ELSET=M146
20145,146
*MASS,ELSET=M146
1.90361955300e+03
*ELEMENT,TYPE=MASS,ELSET=M147
20146,147
*MASS,ELSET=M147
1.08725625780e+03
*ELEMENT,TYPE=MASS,ELSET=M148
20147,148
*MASS,ELSET=M148
1.58135531080e+03
*ELEMENT,TYPE=MASS,ELSET=M149
20148,149
*MASS,ELSET=M149
2.18828611698e+03
*ELEMENT,TYPE=MASS,ELSET=M150
20149,150
*MASS,ELSET=M150
2.06658791907e+03
*ELEMENT,TYPE=MASS,ELSET=M151
20150,151
*MASS,ELSET=M151
8.70748733780e+03
*ELEMENT,TYPE=MASS,ELSET=M152
20151,152
*MASS,ELSET=M152
1.61706614779e+03
*ELEMENT,TYPE=MASS,ELSET=M153
20152,153
*MASS,ELSET=M153
1.02873425417e+03
*ELEMENT,TYPE=MASS,ELSET=M154
20153,154
*MASS,ELSET=M154
4.51347165084e+02
*ELEMENT,TYPE=MASS,ELSET=M155
20154,155
*MASS,ELSET=M155
2.06470882861e+03
*ELEMENT,TYPE=MASS,ELSET=M156
20155,156
*MASS,ELSET=M156
2.07006768530e+03
*ELEMENT,TYPE=MASS,ELSET=M157
20156,157
*MASS,ELSET=M157
4.50497704669e+02
*ELEMENT,TYPE=MASS,ELSET=M158
20157,158
*MASS,ELSET=M158
8.60612428368e+02
*ELEMENT,TYPE=MASS,ELSET=M159
20158,159
*MASS,ELSET=M159
1.50344257523e+03
*ELEMENT,TYPE=MASS,ELSET=M160
20159,160
*MASS,ELSET=M160
1.05334216587e+04
*ELEMENT,TYPE=MASS,ELSET=M161
20160,161
*MASS,ELSET=M161
2.78382566076e+03
*ELEMENT,TYPE=MASS,ELSET=M162
20161,162
*MASS,ELSET=M162
2.97802974365e+03
*ELEMENT,TYPE=MASS,ELSET=M163
20162,163
*MASS,ELSET=M163
2.97545113826e+03
*ELEMENT,TYPE=MASS,ELSET=M164
20163,164
*MASS,ELSET=M164
2.97289137392e+03
*ELEMENT,TYPE=MASS,ELSET=M165
20164,165
*MASS,ELSET=M165
2.06678632191e+03
*ELEMENT,TYPE=MASS,ELSET=M166
20165,166
*MASS,ELSET=M166
1.67974059147e+03
*ELEMENT,TYPE=MASS,ELSET=M167
20166,167
*MASS,ELSET=M167
2.51562525375e+03
*ELEMENT,TYPE=MASS,ELSET=M168
20167,168
*MASS,ELSET=M168
2.96505173695e+03
*ELEMENT,TYPE=MASS,ELSET=M169
20168,169
*MASS,ELSET=M169
2.96256927847e+03
*ELEMENT,TYPE=MASS,ELSET=M170
20169,170
*MASS,ELSET=M170
2.96010560146e+03
*ELEMENT,TYPE=MASS,ELSET=M171
20170,171
*MASS,ELSET=M171
2.95766069436e+03
*ELEMENT,TYPE=MASS,ELSET=M172
20171,172
*MASS,ELSET=M172
2.50602034628e+03
*ELEMENT,TYPE=MASS,ELSET=M173
20172,173
*MASS,ELSET=M173
1.67225773922e+03
*ELEMENT,TYPE=MASS,ELSET=M174
20173,174
*MASS,ELSET=M174
2.05385540991e+03
*ELEMENT,TYPE=MASS,ELSET=M175
20174,175
*MASS,ELSET=M175
2.95017637935e+03
*ELEMENT,TYPE=MASS,ELSET=M176
20175,176
*MASS,ELSET=M176
2.94780850277e+03
*ELEMENT,TYPE=MASS,ELSET=M177
20176,177
*MASS,ELSET=M177
2.94545933943e+03
*ELEMENT,TYPE=MASS,ELSET=M178
20177,178
*MASS,ELSET=M178
2.94312887852e+03
*ELEMENT,TYPE=MASS,ELSET=M179
20178,179
*MASS,ELSET=M179
2.94081710917e+03
*ELEMENT,TYPE=MASS,ELSET=M180
20179,180
*MASS,ELSET=M180
9.82858892070e+03
*ELEMENT,TYPE=MASS,ELSET=M181
20180,181
*MASS,ELSET=M181
2.93096388607e+03
*ELEMENT,TYPE=MASS,ELSET=M182
20181,182
*MASS,ELSET=M182
2.92875205822e+03
*ELEMENT,TYPE=MASS,ELSET=M183
20182,183
*MASS,ELSET=M183
2.92655885582e+03
*ELEMENT,TYPE=MASS,ELSET=M184
20183,184
*MASS,ELSET=M184
2.92438426895e+03
*ELEMENT,TYPE=MASS,ELSET=M185
20184,185
*MASS,ELSET=M185
2.92222828776e+03
*ELEMENT,TYPE=MASS,ELSET=M186
20185,186
*MASS,ELSET=M186
2.03456552183e+03
*ELEMENT,TYPE=MASS,ELSET=M187
20186,187
*MASS,ELSET=M187
1.65472371608e+03
*ELEMENT,TYPE=MASS,ELSET=M188
20187,188
*MASS,ELSET=M188
2.47279137211e+03
*ELEMENT,TYPE=MASS,ELSET=M189
20188,189
*MASS,ELSET=M189
2.91563886987e+03
*ELEMENT,TYPE=MASS,ELSET=M190
20189,190
*MASS,ELSET=M190
2.91355928275e+03
*ELEMENT,TYPE=MASS,ELSET=M191
20190,191
*MASS,ELSET=M191
2.91149825183e+03
*ELEMENT,TYPE=MASS,ELSET=M192
20191,192
*MASS,ELSET=M192
2.90945576763e+03
*ELEMENT,TYPE=MASS,ELSET=M193
20192,193
*MASS,ELSET=M193
2.46749896611e+03
*ELEMENT,TYPE=MASS,ELSET=M194
20193,194
*MASS,ELSET=M194
1.64846381173e+03
*ELEMENT,TYPE=MASS,ELSET=M195
20194,195
*MASS,ELSET=M195
2.02100143175e+03
*ELEMENT,TYPE=MASS,ELSET=M196
20195,196
*MASS,ELSET=M196
2.90321812200e+03
*ELEMENT,TYPE=MASS,ELSET=M197
20196,197
*MASS,ELSET=M197
2.90125180535e+03
*ELEMENT,TYPE=MASS,ELSET=M198
20197,198
*MASS,ELSET=M198
2.89930398875e+03
*ELEMENT,TYPE=MASS,ELSET=M199
20198,199
*MASS,ELSET=M199
2.89737466346e+03
*ELEMENT,TYPE=MASS,ELSET=M200
20199,200
*MASS,ELSET=M200
2.89546382077e+03
*ELEMENT,TYPE=MASS,ELSET=M201
20200,201
*MASS,ELSET=M201
9.78407490981e+03
*ELEMENT,TYPE=MASS,ELSET=M202
20201,202
*MASS,ELSET=M202
2.88728904396e+03
*ELEMENT,TYPE=MASS,ELSET=M203
20202,203
*MASS,ELSET=M203
2.88547772232e+03
*ELEMENT,TYPE=MASS,ELSET=M204
20203,204
*MASS,ELSET=M204
2.88368482947e+03
*ELEMENT,TYPE=MASS,ELSET=M205
20204,205
*MASS,ELSET=M205
2.88191035731e+03
*ELEMENT,TYPE=MASS,ELSET=M206
20205,206
*MASS,ELSET=M206
2.88015429778e+03
*ELEMENT,TYPE=MASS,ELSET=M207
20206,207
*MASS,ELSET=M207
2.00667427325e+03
*ELEMENT,TYPE=MASS,ELSET=M208
20207,208
*MASS,ELSET=M208
1.63400041243e+03
*ELEMENT,TYPE=MASS,ELSET=M209
20208,209
*MASS,ELSET=M209
2.43850568319e+03
*ELEMENT,TYPE=MASS,ELSET=M210
20209,210
*MASS,ELSET=M210
2.87480531453e+03
*ELEMENT,TYPE=MASS,ELSET=M211
20210,211
*MASS,ELSET=M211
2.87312490595e+03
*ELEMENT,TYPE=MASS,ELSET=M212
20211,212
*MASS,ELSET=M212
2.87146287052e+03
*ELEMENT,TYPE=MASS,ELSET=M213
20212,213
*MASS,ELSET=M213
2.86981920085e+03
*ELEMENT,TYPE=MASS,ELSET=M214
20213,214
*MASS,ELSET=M214
2.43472703894e+03
*ELEMENT,TYPE=MASS,ELSET=M215
20214,215
*MASS,ELSET=M215
1.62895150636e+03
*ELEMENT,TYPE=MASS,ELSET=M216
20215,216
*MASS,ELSET=M216
1.99524340895e+03
*ELEMENT,TYPE=MASS,ELSET=M217
20216,217
*MASS,ELSET=M217
2.86481913930e+03
*ELEMENT,TYPE=MASS,ELSET=M218
20217,218
*MASS,ELSET=M218
2.86325094076e+03
*ELEMENT,TYPE=MASS,ELSET=M219
20218,219
*MASS,ELSET=M219
2.86170107122e+03
*ELEMENT,TYPE=MASS,ELSET=M220
20219,220
*MASS,ELSET=M220
2.86016952369e+03
*ELEMENT,TYPE=MASS,ELSET=M221
20220,221
*MASS,ELSET=M221
2.85865629142e+03
*ELEMENT,TYPE=MASS,ELSET=M222
20221,222
*MASS,ELSET=M222
9.74811836344e+03
*ELEMENT,TYPE=MASS,ELSET=M223
20222,223
*MASS,ELSET=M223
2.85218340054e+03
*ELEMENT,TYPE=MASS,ELSET=M224
20223,224
*MASS,ELSET=M224
2.85076936803e+03
*ELEMENT,TYPE=MASS,ELSET=M225
20224,225
*MASS,ELSET=M225
2.84937360888e+03
*ELEMENT,TYPE=MASS,ELSET=M226
20225,226
*MASS,ELSET=M226
2.84799611694e+03
*ELEMENT,TYPE=MASS,ELSET=M227
20226,227
*MASS,ELSET=M227
2.84663688613e+03
*ELEMENT,TYPE=MASS,ELSET=M228
20227,228
*MASS,ELSET=M228
1.98449063593e+03
*ELEMENT,TYPE=MASS,ELSET=M229
20228,229
*MASS,ELSET=M229
1.61755355610e+03
*ELEMENT,TYPE=MASS,ELSET=M230
20229,230
*MASS,ELSET=M230
2.41134152466e+03
*ELEMENT,TYPE=MASS,ELSET=M231
20230,231
*MASS,ELSET=M231
2.84252063048e+03
*ELEMENT,TYPE=MASS,ELSET=M232
20231,232
*MASS,ELSET=M232
2.84123647061e+03
*ELEMENT,TYPE=MASS,ELSET=M233
20232,233
*MASS,ELSET=M233
2.83997054194e+03
*ELEMENT,TYPE=MASS,ELSET=M234
20233,234
*MASS,ELSET=M234
2.83872283886e+03
*ELEMENT,TYPE=MASS,ELSET=M235
20234,235
*MASS,ELSET=M235
2.40907435668e+03
*ELEMENT,TYPE=MASS,ELSET=M236
20235,236
*MASS,ELSET=M236
1.61370741116e+03
*ELEMENT,TYPE=MASS,ELSET=M237
20236,237
*MASS,ELSET=M237
1.97517100325e+03
*ELEMENT,TYPE=MASS,ELSET=M238
20237,238
*MASS,ELSET=M238
2.83495331610e+03
*ELEMENT,TYPE=MASS,ELSET=M239
20238,239
*MASS,ELSET=M239
2.83378054938e+03
*ELEMENT,TYPE=MASS,ELSET=M240
20239,240
*MASS,ELSET=M240
2.83262598101e+03
*ELEMENT,TYPE=MASS,ELSET=M241
20240,241
*MASS,ELSET=M241
2.83148960589e+03
*ELEMENT,TYPE=MASS,ELSET=M242
20241,242
*MASS,ELSET=M242
2.83037141901e+03
*ELEMENT,TYPE=MASS,ELSET=M243
20242,243
*MASS,ELSET=M243
9.72069430362e+03
*ELEMENT,TYPE=MASS,ELSET=M244
20243,244
*MASS,ELSET=M244
2.82562009809e+03
*ELEMENT,TYPE=MASS,ELSET=M245
20244,245
*MASS,ELSET=M245
2.82460087932e+03
*ELEMENT,TYPE=MASS,ELSET=M246
20245,246
*MASS,ELSET=M246
2.82359981864e+03
*ELEMENT,TYPE=MASS,ELSET=M247
20246,247
*MASS,ELSET=M247
2.82261691167e+03
*ELEMENT,TYPE=MASS,ELSET=M248
20247,248
*MASS,ELSET=M248
2.39582968863e+03
*ELEMENT,TYPE=MASS,ELSET=M249
20248,249
*MASS,ELSET=M249
1.60585793517e+03
*ELEMENT,TYPE=MASS,ELSET=M250
20249,250
*MASS,ELSET=M250
1.96487218828e+03
*ELEMENT,TYPE=MASS,ELSET=M251
20250,251
*MASS,ELSET=M251
2.81967112786e+03
*ELEMENT,TYPE=MASS,ELSET=M252
20251,252
*MASS,ELSET=M252
2.81876288569e+03
*ELEMENT,TYPE=MASS,ELSET=M253
20252,253
*MASS,ELSET=M253
2.81787277613e+03
*ELEMENT,TYPE=MASS,ELSET=M254
20253,254
*MASS,ELSET=M254
2.81700079530e+03
*ELEMENT,TYPE=MASS,ELSET=M255
20254,255
*MASS,ELSET=M255
1.96493744447e+03
*ELEMENT,TYPE=MASS,ELSET=M256
20255,256
*MASS,ELSET=M256
1.60311906154e+03
*ELEMENT,TYPE=MASS,ELSET=M257
20256,257
*MASS,ELSET=M257
2.38758208546e+03
*ELEMENT,TYPE=MASS,ELSET=M258
20257,258
*MASS,ELSET=M258
2.81440026250e+03
*ELEMENT,TYPE=MASS,ELSET=M259
20258,259
*MASS,ELSET=M259
2.81360285274e+03
*ELEMENT,TYPE=MASS,ELSET=M260
20259,260
*MASS,ELSET=M260
2.81282355316e+03
*ELEMENT,TYPE=MASS,ELSET=M261
20260,261
*MASS,ELSET=M261
2.52966865918e+03
*ELEMENT,TYPE=MASS,ELSET=M262
20261,262
*MASS,ELSET=M262
8.16936496721e+03
*ELEMENT,TYPE=MASS,ELSET=M263
20262,263
*MASS,ELSET=M263
1.81581351662e+03
*ELEMENT,TYPE=MASS,ELSET=M264
20263,264
*MASS,ELSET=M264
2.80888716252e+03
*ELEMENT,TYPE=MASS,ELSET=M265
20264,265
*MASS,ELSET=M265
2.80822479451e+03
*ELEMENT,TYPE=MASS,ELSET=M266
20265,266
*MASS,ELSET=M266
2.80758051339e+03
*ELEMENT,TYPE=MASS,ELSET=M267
20266,267
*MASS,ELSET=M267
2.80695431637e+03
*ELEMENT,TYPE=MASS,ELSET=M268
20267,268
*MASS,ELSET=M268
2.09990685534e+03
*ELEMENT,TYPE=MASS,ELSET=M269
20268,269
*MASS,ELSET=M269
1.59829374796e+03
*ELEMENT,TYPE=MASS,ELSET=M270
20269,270
*MASS,ELSET=M270
2.23812354178e+03
*ELEMENT,TYPE=MASS,ELSET=M271
20270,271
*MASS,ELSET=M271
2.80511904140e+03
*ELEMENT,TYPE=MASS,ELSET=M272
20271,272
*MASS,ELSET=M272
2.80456725044e+03
*ELEMENT,TYPE=MASS,ELSET=M273
20272,273
*MASS,ELSET=M273
2.80403353060e+03
*ELEMENT,TYPE=MASS,ELSET=M274
20273,274
*MASS,ELSET=M274
2.80351787955e+03
*ELEMENT,TYPE=MASS,ELSET=M275
20274,275
*MASS,ELSET=M275
1.67333676804e+03
*ELEMENT,TYPE=MASS,ELSET=M276
20275,276
*MASS,ELSET=M276
1.59665208569e+03
*ELEMENT,TYPE=MASS,ELSET=M277
20276,277
*MASS,ELSET=M277
2.65978769426e+03
*ELEMENT,TYPE=MASS,ELSET=M278
20277,278
*MASS,ELSET=M278
2.80202691234e+03
*ELEMENT,TYPE=MASS,ELSET=M279
20278,279
*MASS,ELSET=M279
2.80158561176e+03
*ELEMENT,TYPE=MASS,ELSET=M280
20279,280
*MASS,ELSET=M280
2.80116236945e+03
*ELEMENT,TYPE=MASS,ELSET=M281
20280,281
*MASS,ELSET=M281
2.80075718358e+03
*ELEMENT,TYPE=MASS,ELSET=M282
20281,282
*MASS,ELSET=M282
1.81296124322e+03
*ELEMENT,TYPE=MASS,ELSET=M283
20282,283
*MASS,ELSET=M283
8.16347574555e+03
*ELEMENT,TYPE=MASS,ELSET=M284
20283,284
*MASS,ELSET=M284
2.51558504000e+03
*ELEMENT,TYPE=MASS,ELSET=M285
20284,285
*MASS,ELSET=M285
2.79886014509e+03
*ELEMENT,TYPE=MASS,ELSET=M286
20285,286
*MASS,ELSET=M286
2.79857175279e+03
*ELEMENT,TYPE=MASS,ELSET=M287
20286,287
*MASS,ELSET=M287
2.79830140580e+03
*ELEMENT,TYPE=MASS,ELSET=M288
20287,288
*MASS,ELSET=M288
2.65814695174e+03
*ELEMENT,TYPE=MASS,ELSET=M289
20288,289
*MASS,ELSET=M289
1.59425097421e+03
*ELEMENT,TYPE=MASS,ELSET=M290
20289,290
*MASS,ELSET=M290
1.66774204539e+03
*ELEMENT,TYPE=MASS,ELSET=M291
20290,291
*MASS,ELSET=M291
2.79757464825e+03
*ELEMENT,TYPE=MASS,ELSET=M292
20291,292
*MASS,ELSET=M292
2.79737857004e+03
*ELEMENT,TYPE=MASS,ELSET=M293
20292,293
*MASS,ELSET=M293
2.79720053203e+03
*ELEMENT,TYPE=MASS,ELSET=M294
20293,294
*MASS,ELSET=M294
2.79704053346e+03
*ELEMENT,TYPE=MASS,ELSET=M295
20294,295
*MASS,ELSET=M295
2.23392077989e+03
*ELEMENT,TYPE=MASS,ELSET=M296
20295,296
*MASS,ELSET=M296
1.59370184604e+03
*ELEMENT,TYPE=MASS,ELSET=M297
20296,297
*MASS,ELSET=M297
2.09033014193e+03
*ELEMENT,TYPE=MASS,ELSET=M298
20297,298
*MASS,ELSET=M298
2.79665761942e+03
*ELEMENT,TYPE=MASS,ELSET=M299
20298,299
*MASS,ELSET=M299
2.79657187117e+03
*ELEMENT,TYPE=MASS,ELSET=M300
20299,300
*MASS,ELSET=M300
2.79650415966e+03
*ELEMENT,TYPE=MASS,ELSET=M301
20300,301
*MASS,ELSET=M301
2.79645512692e+03
*ELEMENT,TYPE=MASS,ELSET=M302
20301,302
*MASS,ELSET=M302
9.68915362404e+03
*ELEMENT,TYPE=MASS,ELSET=M303
20302,303
*MASS,ELSET=M303
2.79645370292e+03
*ELEMENT,TYPE=MASS,ELSET=M304
20303,304
*MASS,ELSET=M304
2.79650211732e+03
*ELEMENT,TYPE=MASS,ELSET=M305
20304,305
*MASS,ELSET=M305
2.79656919783e+03
*ELEMENT,TYPE=MASS,ELSET=M306
20305,306
*MASS,ELSET=M306
2.79665431507e+03
*ELEMENT,TYPE=MASS,ELSET=M307
20306,307
*MASS,ELSET=M307
2.37481561579e+03
*ELEMENT,TYPE=MASS,ELSET=M308
20307,308
*MASS,ELSET=M308
1.59369807230e+03
*ELEMENT,TYPE=MASS,ELSET=M309
20308,309
*MASS,ELSET=M309
1.94942724459e+03
*ELEMENT,TYPE=MASS,ELSET=M310
20309,310
*MASS,ELSET=M310
2.79703526238e+03
*ELEMENT,TYPE=MASS,ELSET=M311
20310,311
*MASS,ELSET=M311
2.79719462985e+03
*ELEMENT,TYPE=MASS,ELSET=M312
20311,312
*MASS,ELSET=M312
2.79737203672e+03
*ELEMENT,TYPE=MASS,ELSET=M313
20312,313
*MASS,ELSET=M313
2.79756748376e+03
*ELEMENT,TYPE=MASS,ELSET=M314
20313,314
*MASS,ELSET=M314
1.95233987934e+03
*ELEMENT,TYPE=MASS,ELSET=M315
20314,315
*MASS,ELSET=M315
1.59424409517e+03
*ELEMENT,TYPE=MASS,ELSET=M316
20315,316
*MASS,ELSET=M316
2.37353409052e+03
*ELEMENT,TYPE=MASS,ELSET=M317
20316,317
*MASS,ELSET=M317
2.79829227375e+03
*ELEMENT,TYPE=MASS,ELSET=M318
20317,318
*MASS,ELSET=M318
2.79856198940e+03
*ELEMENT,TYPE=MASS,ELSET=M319
20318,319
*MASS,ELSET=M319
2.79884975032e+03
*ELEMENT,TYPE=MASS,ELSET=M320
20319,320
*MASS,ELSET=M320
2.51797550436e+03
*ELEMENT,TYPE=MASS,ELSET=M321
20320,321
*MASS,ELSET=M321
8.16346908183e+03
*ELEMENT,TYPE=MASS,ELSET=M322
20321,322
*MASS,ELSET=M322
1.81055199504e+03
*ELEMENT,TYPE=MASS,ELSET=M323
20322,323
*MASS,ELSET=M323
2.80074333809e+03
*ELEMENT,TYPE=MASS,ELSET=M324
20323,324
*MASS,ELSET=M324
2.80114789242e+03
*ELEMENT,TYPE=MASS,ELSET=M325
20324,325
*MASS,ELSET=M325
2.80157050314e+03
*ELEMENT,TYPE=MASS,ELSET=M326
20325,326
*MASS,ELSET=M326
2.80201117206e+03
*ELEMENT,TYPE=MASS,ELSET=M327
20326,327
*MASS,ELSET=M327
2.09678442867e+03
*ELEMENT,TYPE=MASS,ELSET=M328
20327,328
*MASS,ELSET=M328
1.59665649734e+03
*ELEMENT,TYPE=MASS,ELSET=M329
20328,329
*MASS,ELSET=M329
2.23632772309e+03
*ELEMENT,TYPE=MASS,ELSET=M330
20329,330
*MASS,ELSET=M330
2.80350017541e+03
*ELEMENT,TYPE=MASS,ELSET=M331
20330,331
*MASS,ELSET=M331
2.80401519467e+03
*ELEMENT,TYPE=MASS,ELSET=M332
20331,332
*MASS,ELSET=M332
2.80454828265e+03
*ELEMENT,TYPE=MASS,ELSET=M333
20332,333
*MASS,ELSET=M333
2.80509944166e+03
*ELEMENT,TYPE=MASS,ELSET=M334
20333,334
*MASS,ELSET=M334
1.67443531213e+03
*ELEMENT,TYPE=MASS,ELSET=M335
20334,335
*MASS,ELSET=M335
1.59829793965e+03
*ELEMENT,TYPE=MASS,ELSET=M336
20335,336
*MASS,ELSET=M336
2.66357869559e+03
*ELEMENT,TYPE=MASS,ELSET=M337
20336,337
*MASS,ELSET=M337
2.80693275389e+03
*ELEMENT,TYPE=MASS,ELSET=M338
20337,338
*MASS,ELSET=M338
2.80755831880e+03
*ELEMENT,TYPE=MASS,ELSET=M339
20338,339
*MASS,ELSET=M339
2.80820196773e+03
*ELEMENT,TYPE=MASS,ELSET=M340
20339,340
*MASS,ELSET=M340
2.80886370344e+03
*ELEMENT,TYPE=MASS,ELSET=M341
20340,341
*MASS,ELSET=M341
1.81843571744e+03
*ELEMENT,TYPE=MASS,ELSET=M342
20341,342
*MASS,ELSET=M342
8.16935034435e+03
*ELEMENT,TYPE=MASS,ELSET=M343
20342,343
*MASS,ELSET=M343
2.52700665694e+03
*ELEMENT,TYPE=MASS,ELSET=M344
20343,344
*MASS,ELSET=M344
2.81279665503e+03
*ELEMENT,TYPE=MASS,ELSET=M345
20344,345
*MASS,ELSET=M345
2.81357532198e+03
*ELEMENT,TYPE=MASS,ELSET=M346
20345,346
*MASS,ELSET=M346
2.81437209898e+03
*ELEMENT,TYPE=MASS,ELSET=M347
20346,347
*MASS,ELSET=M347
2.67440144476e+03
*ELEMENT,TYPE=MASS,ELSET=M348
20347,348
*MASS,ELSET=M348
1.60309351880e+03
*ELEMENT,TYPE=MASS,ELSET=M349
20348,349
*MASS,ELSET=M349
1.67806339014e+03
*ELEMENT,TYPE=MASS,ELSET=M350
20349,350
*MASS,ELSET=M350
2.81697065399e+03
*ELEMENT,TYPE=MASS,ELSET=M351
20350,351
*MASS,ELSET=M351
2.81784200143e+03
*ELEMENT,TYPE=MASS,ELSET=M352
20351,352
*MASS,ELSET=M352
2.81873147746e+03
*ELEMENT,TYPE=MASS,ELSET=M353
20352,353
*MASS,ELSET=M353
2.81963908599e+03
*ELEMENT,TYPE=MASS,ELSET=M354
20353,354
*MASS,ELSET=M354
2.25227513324e+03
*ELEMENT,TYPE=MASS,ELSET=M355
20354,355
*MASS,ELSET=M355
1.60582920479e+03
*ELEMENT,TYPE=MASS,ELSET=M356
20355,356
*MASS,ELSET=M356
2.10836498052e+03
*ELEMENT,TYPE=MASS,ELSET=M357
20356,357
*MASS,ELSET=M357
2.82258288769e+03
*ELEMENT,TYPE=MASS,ELSET=M358
20357,358
*MASS,ELSET=M358
2.82356516028e+03
*ELEMENT,TYPE=MASS,ELSET=M359
20358,359
*MASS,ELSET=M359
2.82456558642e+03
*ELEMENT,TYPE=MASS,ELSET=M360
20359,360
*MASS,ELSET=M360
2.82558417048e+03
*ELEMENT,TYPE=MASS,ELSET=M361
20360,361
*MASS,ELSET=M361
9.72065698200e+03
*ELEMENT,TYPE=MASS,ELSET=M362
20361,362
*MASS,ELSET=M362
2.83033270331e+03
*ELEMENT,TYPE=MASS,ELSET=M363
20362,363
*MASS,ELSET=M363
2.83145025519e+03
*ELEMENT,TYPE=MASS,ELSET=M364
20363,364
*MASS,ELSET=M364
2.83258599514e+03
*ELEMENT,TYPE=MASS,ELSET=M365
20364,365
*MASS,ELSET=M365
2.83373992816e+03
*ELEMENT,TYPE=MASS,ELSET=M366
20365,366
*MASS,ELSET=M366
2.83491205935e+03
*ELEMENT,TYPE=MASS,ELSET=M367
20366,367
*MASS,ELSET=M367
1.97780769659e+03
*ELEMENT,TYPE=MASS,ELSET=M368
20367,368
*MASS,ELSET=M368
1.61368613974e+03
*ELEMENT,TYPE=MASS,ELSET=M369
20368,369
*MASS,ELSET=M369
2.40637414597e+03
*ELEMENT,TYPE=MASS,ELSET=M370
20369,370
*MASS,ELSET=M370
2.83867960343e+03
*ELEMENT,TYPE=MASS,ELSET=M371
20370,371
*MASS,ELSET=M371
2.83992667026e+03
*ELEMENT,TYPE=MASS,ELSET=M372
20371,372
*MASS,ELSET=M372
2.84119196248e+03
*ELEMENT,TYPE=MASS,ELSET=M373
20372,373
*MASS,ELSET=M373
2.84247548567e+03
*ELEMENT,TYPE=MASS,ELSET=M374
20373,374
*MASS,ELSET=M374
2.41397632693e+03
*ELEMENT,TYPE=MASS,ELSET=M375
20374,375
*MASS,ELSET=M375
1.61753033730e+03
*ELEMENT,TYPE=MASS,ELSET=M376
20375,376
*MASS,ELSET=M376
1.98178647930e+03
*ELEMENT,TYPE=MASS,ELSET=M377
20376,377
*MASS,ELSET=M377
2.84658975954e+03
*ELEMENT,TYPE=MASS,ELSET=M378
20377,378
*MASS,ELSET=M378
2.84794835294e+03
*ELEMENT,TYPE=MASS,ELSET=M379
20378,379
*MASS,ELSET=M379
2.84932520721e+03
*ELEMENT,TYPE=MASS,ELSET=M380
20379,380
*MASS,ELSET=M380
2.85072032844e+03
*ELEMENT,TYPE=MASS,ELSET=M381
20380,381
*MASS,ELSET=M381
2.85213372284e+03
*ELEMENT,TYPE=MASS,ELSET=M382
20381,382
*MASS,ELSET=M382
9.74806730585e+03
*ELEMENT,TYPE=MASS,ELSET=M383
20382,383
*MASS,ELSET=M383
2.85860385387e+03
*ELEMENT,TYPE=MASS,ELSET=M384
20383,384
*MASS,ELSET=M384
2.86011644759e+03
*ELEMENT,TYPE=MASS,ELSET=M385
20384,385
*MASS,ELSET=M385
2.86164735632e+03
*ELEMENT,TYPE=MASS,ELSET=M386
20385,386
*MASS,ELSET=M386
2.86319658684e+03
*ELEMENT,TYPE=MASS,ELSET=M387
20386,387
*MASS,ELSET=M387
2.86476414611e+03
*ELEMENT,TYPE=MASS,ELSET=M388
20387,388
*MASS,ELSET=M388
1.99790234724e+03
*ELEMENT,TYPE=MASS,ELSET=M389
20388,389
*MASS,ELSET=M389
1.62892331946e+03
*ELEMENT,TYPE=MASS,ELSET=M390
20389,390
*MASS,ELSET=M390
2.43198392645e+03
*ELEMENT,TYPE=MASS,ELSET=M391
20390,391
*MASS,ELSET=M391
2.86976221910e+03
*ELEMENT,TYPE=MASS,ELSET=M392
20391,392
*MASS,ELSET=M392
2.87140524853e+03
*ELEMENT,TYPE=MASS,ELSET=M393
20392,393
*MASS,ELSET=M393
2.87306664344e+03
*ELEMENT,TYPE=MASS,ELSET=M394
20393,394
*MASS,ELSET=M394
2.87474641128e+03
*ELEMENT,TYPE=MASS,ELSET=M395
20394,395
*MASS,ELSET=M395
2.44116304728e+03
*ELEMENT,TYPE=MASS,ELSET=M396
20395,396
*MASS,ELSET=M396
1.63397026700e+03
*ELEMENT,TYPE=MASS,ELSET=M397
20396,397
*MASS,ELSET=M397
2.00392686433e+03
*ELEMENT,TYPE=MASS,ELSET=M398
20397,398
*MASS,ELSET=M398
2.88009340176e+03
*ELEMENT,TYPE=MASS,ELSET=M399
20398,399
*MASS,ELSET=M399
2.88184881941e+03
*ELEMENT,TYPE=MASS,ELSET=M400
20399,400
*MASS,ELSET=M400
2.88362264951e+03
*ELEMENT,TYPE=MASS,ELSET=M401
20400,401
*MASS,ELSET=M401
2.88541490003e+03
*ELEMENT,TYPE=MASS,ELSET=M402
20401,402
*MASS,ELSET=M402
2.88722557897e+03
*ELEMENT,TYPE=MASS,ELSET=M403
20402,403
*MASS,ELSET=M403
9.78401008241e+03
*ELEMENT,TYPE=MASS,ELSET=M404
20403,404
*MASS,ELSET=M404
2.89539763079e+03
*ELEMENT,TYPE=MASS,ELSET=M405
20404,405
*MASS,ELSET=M405
2.89730783024e+03
*ELEMENT,TYPE=MASS,ELSET=M406
20405,406
*MASS,ELSET=M406
2.89923651194e+03
*ELEMENT,TYPE=MASS,ELSET=M407
20406,407
*MASS,ELSET=M407
2.90118368464e+03
*ELEMENT,TYPE=MASS,ELSET=M408
20407,408
*MASS,ELSET=M408
2.90314935718e+03
*ELEMENT,TYPE=MASS,ELSET=M409
20408,409
*MASS,ELSET=M409
2.02369141277e+03
*ELEMENT,TYPE=MASS,ELSET=M410
20409,410
*MASS,ELSET=M410
1.64842869219e+03
*ELEMENT,TYPE=MASS,ELSET=M411
20410,411
*MASS,ELSET=M411
2.46470410016e+03
*ELEMENT,TYPE=MASS,ELSET=M412
20411,412
*MASS,ELSET=M412
2.90938500106e+03
*ELEMENT,TYPE=MASS,ELSET=M413
20412,413
*MASS,ELSET=M413
2.91142683975e+03
*ELEMENT,TYPE=MASS,ELSET=M414
20413,414
*MASS,ELSET=M414
2.91348722487e+03
*ELEMENT,TYPE=MASS,ELSET=M415
20414,415
*MASS,ELSET=M415
2.91556616582e+03
*ELEMENT,TYPE=MASS,ELSET=M416
20415,416
*MASS,ELSET=M416
2.47548010179e+03
*ELEMENT,TYPE=MASS,ELSET=M417
20416,417
*MASS,ELSET=M417
1.65468662349e+03
*ELEMENT,TYPE=MASS,ELSET=M418
20417,418
*MASS,ELSET=M418
2.03176599244e+03
*ELEMENT,TYPE=MASS,ELSET=M419
20418,419
*MASS,ELSET=M419
2.92215357703e+03
*ELEMENT,TYPE=MASS,ELSET=M420
20419,420
*MASS,ELSET=M420
2.92430891077e+03
*ELEMENT,TYPE=MASS,ELSET=M421
20420,421
*MASS,ELSET=M421
2.92648284978e+03
*ELEMENT,TYPE=MASS,ELSET=M422
20421,422
*MASS,ELSET=M422
2.92867540402e+03
*ELEMENT,TYPE=MASS,ELSET=M423
20422,423
*MASS,ELSET=M423
2.93088658343e+03
*ELEMENT,TYPE=MASS,ELSET=M424
20423,424
*MASS,ELSET=M424
9.82851027581e+03
*ELEMENT,TYPE=MASS,ELSET=M425
20424,425
*MASS,ELSET=M425
2.94073712183e+03
*ELEMENT,TYPE=MASS,ELSET=M426
20425,426
*MASS,ELSET=M426
2.94304824198e+03
*ELEMENT,TYPE=MASS,ELSET=M427
20426,427
*MASS,ELSET=M427
2.94537805338e+03
*ELEMENT,TYPE=MASS,ELSET=M428
20427,428
*MASS,ELSET=M428
2.94772656663e+03
*ELEMENT,TYPE=MASS,ELSET=M429
20428,429
*MASS,ELSET=M429
2.95009379270e+03
*ELEMENT,TYPE=MASS,ELSET=M430
20429,430
*MASS,ELSET=M430
2.05519263376e+03
*ELEMENT,TYPE=MASS,ELSET=M431
20430,431
*MASS,ELSET=M431
1.67221579972e+03
*ELEMENT,TYPE=MASS,ELSET=M432
20431,432
*MASS,ELSET=M432
2.50455758758e+03
*ELEMENT,TYPE=MASS,ELSET=M433
20432,433
*MASS,ELSET=M433
2.95757608971e+03
*ELEMENT,TYPE=MASS,ELSET=M434
20433,434
*MASS,ELSET=M434
2.96002034496e+03
*ELEMENT,TYPE=MASS,ELSET=M435
20434,435
*MASS,ELSET=M435
2.96248336980e+03
*ELEMENT,TYPE=MASS,ELSET=M436
20435,436
*MASS,ELSET=M436
2.96496517564e+03
*ELEMENT,TYPE=MASS,ELSET=M437
20436,437
*MASS,ELSET=M437
2.51695339630e+03
*ELEMENT,TYPE=MASS,ELSET=M438
20437,438
*MASS,ELSET=M438
1.67969666761e+03
*ELEMENT,TYPE=MASS,ELSET=M439
20438,439
*MASS,ELSET=M439
2.06532668231e+03
*ELEMENT,TYPE=MASS,ELSET=M440
20439,440
*MASS,ELSET=M440
2.97280278828e+03
*ELEMENT,TYPE=MASS,ELSET=M441
20440,441
*MASS,ELSET=M441
2.97536189828e+03
*ELEMENT,TYPE=MASS,ELSET=M442
20441,442
*MASS,ELSET=M442
2.97793984901e+03
*ELEMENT,TYPE=MASS,ELSET=M443
20442,443
*MASS,ELSET=M443
2.78374169326e+03
*ELEMENT,TYPE=MASS,ELSET=M444
20443,444
*MASS,ELSET=M444
1.03639355509e+04
*ELEMENT,TYPE=MASS,ELSET=M445
20444,445
*MASS,ELSET=M445
1.51000578577e+03
*ELEMENT,TYPE=MASS,ELSET=M446
20445,446
*MASS,ELSET=M446
1.02674766874e+03
*ELEMENT,TYPE=MASS,ELSET=M447
20446,447
*MASS,ELSET=M447
3.10411607962e+02
*ELEMENT,TYPE=MASS,ELSET=M448
20447,448
*MASS,ELSET=M448
2.21108967144e+03
*ELEMENT,TYPE=MASS,ELSET=M449
20448,449
*MASS,ELSET=M449
2.21912796201e+03
*ELEMENT,TYPE=MASS,ELSET=M450
20449,450
*MASS,ELSET=M450
1.44394549453e+02
*ELEMENT,TYPE=MASS,ELSET=M451
20450,451
*MASS,ELSET=M451
9.63033062126e+02
*ELEMENT,TYPE=MASS,ELSET=M452
20451,452
*MASS,ELSET=M452
1.84425883278e+03
*ELEMENT,TYPE=MASS,ELSET=M453
20452,453
*MASS,ELSET=M453
8.39079195220e+03
*ELEMENT,TYPE=MASS,ELSET=M454
20453,454
*MASS,ELSET=M454
1.11889980484e+03
*ELEMENT,TYPE=MASS,ELSET=M455
20454,455
*MASS,ELSET=M455
1.51222709802e+03
*ELEMENT,TYPE=MASS,ELSET=M456
20455,456
*MASS,ELSET=M456
2.09383193912e+03
*ELEMENT,TYPE=MASS,ELSET=M457
20456,457
*MASS,ELSET=M457
1.51073917909e+03
*ELEMENT,TYPE=MASS,ELSET=M458
20457,458
*MASS,ELSET=M458
1.04032698955e+03
*ELEMENT,TYPE=MASS,ELSET=M459
20458,459
*MASS,ELSET=M459
1.50928314947e+03
*ELEMENT,TYPE=MASS,ELSET=M460
20459,460
*MASS,ELSET=M460
2.08992054997e+03
*ELEMENT,TYPE=MASS,ELSET=M461
20460,461
*MASS,ELSET=M461
1.83205621834e+03
*ELEMENT,TYPE=MASS,ELSET=M462
20461,462
*MASS,ELSET=M462
1.03828303700e+03
*ELEMENT,TYPE=MASS,ELSET=M463
20462,463
*MASS,ELSET=M463
1.50622800322e+03
*ELEMENT,TYPE=MASS,ELSET=M464
20463,464
*MASS,ELSET=M464
2.08586161420e+03
*ELEMENT,TYPE=MASS,ELSET=M465
20464,465
*MASS,ELSET=M465
1.50478288374e+03
*ELEMENT,TYPE=MASS,ELSET=M466
20465,466
*MASS,ELSET=M466
1.03637027387e+03
*ELEMENT,TYPE=MASS,ELSET=M467
20466,467
*MASS,ELSET=M467
1.50336908534e+03
*ELEMENT,TYPE=MASS,ELSET=M468
20467,468
*MASS,ELSET=M468
2.08206356467e+03
*ELEMENT,TYPE=MASS,ELSET=M469
20468,469
*MASS,ELSET=M469
1.50194477375e+03
*ELEMENT,TYPE=MASS,ELSET=M470
20469,470
*MASS,ELSET=M470
1.03448507762e+03
*ELEMENT,TYPE=MASS,ELSET=M471
20470,471
*MASS,ELSET=M471
1.50055150533e+03
*ELEMENT,TYPE=MASS,ELSET=M472
20471,472
*MASS,ELSET=M472
2.07832061610e+03
*ELEMENT,TYPE=MASS,ELSET=M473
20472,473
*MASS,ELSET=M473
1.49914797651e+03
*ELEMENT,TYPE=MASS,ELSET=M474
20473,474
*MASS,ELSET=M474
1.03262741366e+03
*ELEMENT,TYPE=MASS,ELSET=M475
20474,475
*MASS,ELSET=M475
1.82196866700e+03
*ELEMENT,TYPE=MASS,ELSET=M476
20475,476
*MASS,ELSET=M476
2.07443760700e+03
*ELEMENT,TYPE=MASS,ELSET=M477
20476,477
*MASS,ELSET=M477
1.49624667504e+03
*ELEMENT,TYPE=MASS,ELSET=M478
20477,478
*MASS,ELSET=M478
1.03069868108e+03
*ELEMENT,TYPE=MASS,ELSET=M479
20478,479
*MASS,ELSET=M479
1.49489372534e+03
*ELEMENT,TYPE=MASS,ELSET=M480
20479,480
*MASS,ELSET=M480
2.07080758789e+03
*ELEMENT,TYPE=MASS,ELSET=M481
20480,481
*MASS,ELSET=M481
1.49353275611e+03
*ELEMENT,TYPE=MASS,ELSET=M482
20481,482
*MASS,ELSET=M482
1.02889560876e+03
*ELEMENT,TYPE=MASS,ELSET=M483
20482,483
*MASS,ELSET=M483
1.49220200706e+03
*ELEMENT,TYPE=MASS,ELSET=M484
20483,484
*MASS,ELSET=M484
2.06723246715e+03
*ELEMENT,TYPE=MASS,ELSET=M485
20484,485
*MASS,ELSET=M485
1.49086174747e+03
*ELEMENT,TYPE=MASS,ELSET=M486
20485,486
*MASS,ELSET=M486
1.02712171811e+03
*ELEMENT,TYPE=MASS,ELSET=M487
20486,487
*MASS,ELSET=M487
1.48955142541e+03
*ELEMENT,TYPE=MASS,ELSET=M488
20487,488
*MASS,ELSET=M488
8.95446113411e+03
*ELEMENT,TYPE=MASS,ELSET=M489
20488,489
*MASS,ELSET=M489
1.48528098496e+03
*ELEMENT,TYPE=MASS,ELSET=M490
20489,490
*MASS,ELSET=M490
1.02341570736e+03
*ELEMENT,TYPE=MASS,ELSET=M491
20490,491
*MASS,ELSET=M491
1.48401431817e+03
*ELEMENT,TYPE=MASS,ELSET=M492
20491,492
*MASS,ELSET=M492
2.05635890392e+03
*ELEMENT,TYPE=MASS,ELSET=M493
20492,493
*MASS,ELSET=M493
1.48273895947e+03
*ELEMENT,TYPE=MASS,ELSET=M494
20493,494
*MASS,ELSET=M494
1.02172778447e+03
*ELEMENT,TYPE=MASS,ELSET=M495
20494,495
*MASS,ELSET=M495
1.48149264453e+03
*ELEMENT,TYPE=MASS,ELSET=M496
20495,496
*MASS,ELSET=M496
2.05301044100e+03
*ELEMENT,TYPE=MASS,ELSET=M497
20496,497
*MASS,ELSET=M497
1.48023790112e+03
*ELEMENT,TYPE=MASS,ELSET=M498
20497,498
*MASS,ELSET=M498
1.02006716685e+03
*ELEMENT,TYPE=MASS,ELSET=M499
20498,499
*MASS,ELSET=M499
1.47901191497e+03
*ELEMENT,TYPE=MASS,ELSET=M500
20499,500
*MASS,ELSET=M500
2.04971655417e+03
*ELEMENT,TYPE=MASS,ELSET=M501
20500,501
*MASS,ELSET=M501
1.80202520950e+03
*ELEMENT,TYPE=MASS,ELSET=M502
20501,502
*MASS,ELSET=M502
1.01834633686e+03
*ELEMENT,TYPE=MASS,ELSET=M503
20502,503
*MASS,ELSET=M503
1.47644140300e+03
*ELEMENT,TYPE=MASS,ELSET=M504
20503,504
*MASS,ELSET=M504
2.04630368326e+03
*ELEMENT,TYPE=MASS,ELSET=M505
20504,505
*MASS,ELSET=M505
1.47522893664e+03
*ELEMENT,TYPE=MASS,ELSET=M506
20505,506
*MASS,ELSET=M506
1.01674171318e+03
*ELEMENT,TYPE=MASS,ELSET=M507
20506,507
*MASS,ELSET=M507
1.47404463616e+03
*ELEMENT,TYPE=MASS,ELSET=M508
20507,508
*MASS,ELSET=M508
2.04312171416e+03
*ELEMENT,TYPE=MASS,ELSET=M509
20508,509
*MASS,ELSET=M509
1.47285272014e+03
*ELEMENT,TYPE=MASS,ELSET=M510
20509,510
*MASS,ELSET=M510
1.01516430619e+03
*ELEMENT,TYPE=MASS,ELSET=M511
20510,511
*MASS,ELSET=M511
1.47168868066e+03
*ELEMENT,TYPE=MASS,ELSET=M512
20511,512
*MASS,ELSET=M512
2.03999414455e+03
*ELEMENT,TYPE=MASS,ELSET=M513
20512,513
*MASS,ELSET=M513
1.47051729451e+03
*ELEMENT,TYPE=MASS,ELSET=M514
20513,514
*MASS,ELSET=M514
1.01361408793e+03
*ELEMENT,TYPE=MASS,ELSET=M515
20514,515
*MASS,ELSET=M515
1.79358179271e+03
*ELEMENT,TYPE=MASS,ELSET=M516
20515,516
*MASS,ELSET=M516
2.03675551479e+03
*ELEMENT,TYPE=MASS,ELSET=M517
20516,517
*MASS,ELSET=M517
1.46809912145e+03
*ELEMENT,TYPE=MASS,ELSET=M518
20517,518
*MASS,ELSET=M518
1.01200906510e+03
*ELEMENT,TYPE=MASS,ELSET=M519
20518,519
*MASS,ELSET=M519
1.46697663818e+03
*ELEMENT,TYPE=MASS,ELSET=M520
20519,520
*MASS,ELSET=M520
2.03373952633e+03
*ELEMENT,TYPE=MASS,ELSET=M521
20520,521
*MASS,ELSET=M521
1.46584736444e+03
*ELEMENT,TYPE=MASS,ELSET=M522
20521,522
*MASS,ELSET=M522
1.01051461599e+03
*ELEMENT,TYPE=MASS,ELSET=M523
20522,523
*MASS,ELSET=M523
1.46474507825e+03
*ELEMENT,TYPE=MASS,ELSET=M524
20523,524
*MASS,ELSET=M524
2.03077777091e+03
*ELEMENT,TYPE=MASS,ELSET=M525
20524,525
*MASS,ELSET=M525
1.46363627427e+03
*ELEMENT,TYPE=MASS,ELSET=M526
20525,526
*MASS,ELSET=M526
1.00904727362e+03
*ELEMENT,TYPE=MASS,ELSET=M527
20526,527
*MASS,ELSET=M527
1.46255416504e+03
*ELEMENT,TYPE=MASS,ELSET=M528
20527,528
*MASS,ELSET=M528
8.91893974334e+03
*ELEMENT,TYPE=MASS,ELSET=M529
20528,529
*MASS,ELSET=M529
1.45899587043e+03
*ELEMENT,TYPE=MASS,ELSET=M530
20529,530
*MASS,ELSET=M530
1.00596817676e+03
*ELEMENT,TYPE=MASS,ELSET=M531
20530,531
*MASS,ELSET=M531
1.45795730606e+03
*ELEMENT,TYPE=MASS,ELSET=M532
20531,532
*MASS,ELSET=M532
2.02177048972e+03
*ELEMENT,TYPE=MASS,ELSET=M533
20532,533
*MASS,ELSET=M533
1.45691309388e+03
*ELEMENT,TYPE=MASS,ELSET=M534
20533,534
*MASS,ELSET=M534
1.00458636387e+03
*ELEMENT,TYPE=MASS,ELSET=M535
20534,535
*MASS,ELSET=M535
1.45589464551e+03
*ELEMENT,TYPE=MASS,ELSET=M536
20535,536
*MASS,ELSET=M536
2.01903387294e+03
*ELEMENT,TYPE=MASS,ELSET=M537
20536,537
*MASS,ELSET=M537
1.45487082711e+03
*ELEMENT,TYPE=MASS,ELSET=M538
20537,538
*MASS,ELSET=M538
1.00323155384e+03
*ELEMENT,TYPE=MASS,ELSET=M539
20538,539
*MASS,ELSET=M539
1.45387247652e+03
*ELEMENT,TYPE=MASS,ELSET=M540
20539,540
*MASS,ELSET=M540
2.01635123085e+03
*ELEMENT,TYPE=MASS,ELSET=M541
20540,541
*MASS,ELSET=M541
1.77712413601e+03
*ELEMENT,TYPE=MASS,ELSET=M542
20541,542
*MASS,ELSET=M542
1.00183155022e+03
*ELEMENT,TYPE=MASS,ELSET=M543
20542,543
*MASS,ELSET=M543
1.45178305524e+03
*ELEMENT,TYPE=MASS,ELSET=M544
20543,544
*MASS,ELSET=M544
2.01357965047e+03
*ELEMENT,TYPE=MASS,ELSET=M545
20544,545
*MASS,ELSET=M545
1.45080109102e+03
*ELEMENT,TYPE=MASS,ELSET=M546
20545,546
*MASS,ELSET=M546
1.00053215595e+03
*ELEMENT,TYPE=MASS,ELSET=M547
20546,547
*MASS,ELSET=M547
1.44984398390e+03
*ELEMENT,TYPE=MASS,ELSET=M548
20547,548
*MASS,ELSET=M548
2.01100777724e+03
*ELEMENT,TYPE=MASS,ELSET=M549
20548,549
*MASS,ELSET=M549
1.44888236189e+03
*ELEMENT,TYPE=MASS,ELSET=M550
20549,550
*MASS,ELSET=M550
9.99259693989e+02
*ELEMENT,TYPE=MASS,ELSET=M551
20550,551
*MASS,ELSET=M551
1.44794529868e+03
*ELEMENT,TYPE=MASS,ELSET=M552
20551,552
*MASS,ELSET=M552
2.00848973887e+03
*ELEMENT,TYPE=MASS,ELSET=M553
20552,553
*MASS,ELSET=M553
1.44700400277e+03
*ELEMENT,TYPE=MASS,ELSET=M554
20553,554
*MASS,ELSET=M554
9.98014142279e+02
*ELEMENT,TYPE=MASS,ELSET=M555
20554,555
*MASS,ELSET=M555
1.77031075617e+03
*ELEMENT,TYPE=MASS,ELSET=M556
20555,556
*MASS,ELSET=M556
2.00589107388e+03
*ELEMENT,TYPE=MASS,ELSET=M557
20556,557
*MASS,ELSET=M557
1.44506572839e+03
*ELEMENT,TYPE=MASS,ELSET=M558
20557,558
*MASS,ELSET=M558
9.96729012881e+02
*ELEMENT,TYPE=MASS,ELSET=M559
20558,559
*MASS,ELSET=M559
1.44416980680e+03
*ELEMENT,TYPE=MASS,ELSET=M560
20559,560
*MASS,ELSET=M560
2.00348354019e+03
*ELEMENT,TYPE=MASS,ELSET=M561
20560,561
*MASS,ELSET=M561
1.44327023574e+03
*ELEMENT,TYPE=MASS,ELSET=M562
20561,562
*MASS,ELSET=M562
9.95538699502e+02
*ELEMENT,TYPE=MASS,ELSET=M563
20562,563
*MASS,ELSET=M563
1.44239430799e+03
*ELEMENT,TYPE=MASS,ELSET=M564
20563,564
*MASS,ELSET=M564
2.00112971141e+03
*ELEMENT,TYPE=MASS,ELSET=M565
20564,565
*MASS,ELSET=M565
1.44151501614e+03
*ELEMENT,TYPE=MASS,ELSET=M566
20565,566
*MASS,ELSET=M566
9.94375232052e+02
*ELEMENT,TYPE=MASS,ELSET=M567
20566,567
*MASS,ELSET=M567
1.44065695486e+03
*ELEMENT,TYPE=MASS,ELSET=M568
20567,568
*MASS,ELSET=M568
8.89022862160e+03
*ELEMENT,TYPE=MASS,ELSET=M569
20568,569
*MASS,ELSET=M569
1.43782862958e+03
*ELEMENT,TYPE=MASS,ELSET=M570
20569,570
*MASS,ELSET=M570
9.91933555671e+02
*ELEMENT,TYPE=MASS,ELSET=M571
20570,571
*MASS,ELSET=M571
1.43701617439e+03
*ELEMENT,TYPE=MASS,ELSET=M572
20571,572
*MASS,ELSET=M572
1.99400036188e+03
*ELEMENT,TYPE=MASS,ELSET=M573
20572,573
*MASS,ELSET=M573
1.43620125798e+03
*ELEMENT,TYPE=MASS,ELSET=M574
20573,574
*MASS,ELSET=M574
9.90855286571e+02
*ELEMENT,TYPE=MASS,ELSET=M575
20574,575
*MASS,ELSET=M575
1.43540873618e+03
*ELEMENT,TYPE=MASS,ELSET=M576
20575,576
*MASS,ELSET=M576
1.99187059286e+03
*ELEMENT,TYPE=MASS,ELSET=M577
20576,577
*MASS,ELSET=M577
1.43461404149e+03
*ELEMENT,TYPE=MASS,ELSET=M578
20577,578
*MASS,ELSET=M578
9.89803782872e+02
*ELEMENT,TYPE=MASS,ELSET=M579
20578,579
*MASS,ELSET=M579
1.43384143910e+03
*ELEMENT,TYPE=MASS,ELSET=M580
20579,580
*MASS,ELSET=M580
1.98979433661e+03
*ELEMENT,TYPE=MASS,ELSET=M581
20580,581
*MASS,ELSET=M581
1.75733000314e+03
*ELEMENT,TYPE=MASS,ELSET=M582
20581,582
*MASS,ELSET=M582
9.88722751771e+02
*ELEMENT,TYPE=MASS,ELSET=M583
20582,583
*MASS,ELSET=M583
1.43223039802e+03
*ELEMENT,TYPE=MASS,ELSET=M584
20583,584
*MASS,ELSET=M584
1.98766049597e+03
*ELEMENT,TYPE=MASS,ELSET=M585
20584,585
*MASS,ELSET=M585
1.43147723193e+03
*ELEMENT,TYPE=MASS,ELSET=M586
20585,586
*MASS,ELSET=M586
9.87726213201e+02
*ELEMENT,TYPE=MASS,ELSET=M587
20586,587
*MASS,ELSET=M587
1.43074553482e+03
*ELEMENT,TYPE=MASS,ELSET=M588
20587,588
*MASS,ELSET=M588
1.98569413425e+03
*ELEMENT,TYPE=MASS,ELSET=M589
20588,589
*MASS,ELSET=M589
1.43001255147e+03
*ELEMENT,TYPE=MASS,ELSET=M590
20589,590
*MASS,ELSET=M590
9.86756386560e+02
*ELEMENT,TYPE=MASS,ELSET=M591
20590,591
*MASS,ELSET=M591
1.42930073310e+03
*ELEMENT,TYPE=MASS,ELSET=M592
20591,592
*MASS,ELSET=M592
1.98378117982e+03
*ELEMENT,TYPE=MASS,ELSET=M593
20592,593
*MASS,ELSET=M593
1.42858792046e+03
*ELEMENT,TYPE=MASS,ELSET=M594
20593,594
*MASS,ELSET=M594
9.85813255315e+02
*ELEMENT,TYPE=MASS,ELSET=M595
20594,595
*MASS,ELSET=M595
1.75213580483e+03
*ELEMENT,TYPE=MASS,ELSET=M596
20595,596
*MASS,ELSET=M596
1.98181927928e+03
*ELEMENT,TYPE=MASS,ELSET=M597
20596,597
*MASS,ELSET=M597
1.42712713698e+03
*ELEMENT,TYPE=MASS,ELSET=M598
20597,598
*MASS,ELSET=M598
9.84846388030e+02
*ELEMENT,TYPE=MASS,ELSET=M599
20598,599
*MASS,ELSET=M599
1.42645614756e+03
*ELEMENT,TYPE=MASS,ELSET=M600
20599,600
*MASS,ELSET=M600
1.98001602186e+03
*ELEMENT,TYPE=MASS,ELSET=M601
20600,601
*MASS,ELSET=M601
1.42578476696e+03
*ELEMENT,TYPE=MASS,ELSET=M602
20601,602
*MASS,ELSET=M602
9.83958089186e+02
*ELEMENT,TYPE=MASS,ELSET=M603
20602,603
*MASS,ELSET=M603
1.42513361900e+03
*ELEMENT,TYPE=MASS,ELSET=M604
20603,604
*MASS,ELSET=M604
1.97826607514e+03
*ELEMENT,TYPE=MASS,ELSET=M605
20604,605
*MASS,ELSET=M605
8.27893975553e+03
*ELEMENT,TYPE=MASS,ELSET=M606
20605,606
*MASS,ELSET=M606
1.64585472490e+03
*ELEMENT,TYPE=MASS,ELSET=M607
20606,607
*MASS,ELSET=M607
7.54934423322e+02
*ELEMENT,TYPE=MASS,ELSET=M608
20607,608
*MASS,ELSET=M608
2.87896808671e+02
*ELEMENT,TYPE=MASS,ELSET=M609
20608,609
*MASS,ELSET=M609
8.32625157712e+02
*ELEMENT,TYPE=MASS,ELSET=M610
20609,610
*MASS,ELSET=M610
1.45434051323e+03
*ELEMENT,TYPE=MASS,ELSET=M611
20610,611
*MASS,ELSET=M611
7.49678482290e+03
*ELEMENT,TYPE=MASS,ELSET=M612
20611,612
*MASS,ELSET=M612
1.44077850936e+03
*ELEMENT,TYPE=MASS,ELSET=M613
20612,613
*MASS,ELSET=M613
1.99898645117e+03
*ELEMENT,TYPE=MASS,ELSET=M614
20613,614
*MASS,ELSET=M614
1.43991805978e+03
*ELEMENT,TYPE=MASS,ELSET=M615
20614,615
*MASS,ELSET=M615
9.93318200752e+02
*ELEMENT,TYPE=MASS,ELSET=M616
20615,616
*MASS,ELSET=M616
1.43908068267e+03
*ELEMENT,TYPE=MASS,ELSET=M617
20616,617
*MASS,ELSET=M617
1.99673618477e+03
*ELEMENT,TYPE=MASS,ELSET=M618
20617,618
*MASS,ELSET=M618
1.43824048558e+03
*ELEMENT,TYPE=MASS,ELSET=M619
20618,619
*MASS,ELSET=M619
9.92206469332e+02
*ELEMENT,TYPE=MASS,ELSET=M620
20619,620
*MASS,ELSET=M620
1.76165387635e+03
*ELEMENT,TYPE=MASS,ELSET=M621
20620,621
*MASS,ELSET=M621
1.99441915170e+03
*ELEMENT,TYPE=MASS,ELSET=M622
20621,622
*MASS,ELSET=M622
1.43651339092e+03
*ELEMENT,TYPE=MASS,ELSET=M623
20622,623
*MASS,ELSET=M623
9.91062088204e+02
*ELEMENT,TYPE=MASS,ELSET=M624
20623,624
*MASS,ELSET=M624
1.43571700858e+03
*ELEMENT,TYPE=MASS,ELSET=M625
20624,625
*MASS,ELSET=M625
1.99227901155e+03
*ELEMENT,TYPE=MASS,ELSET=M626
20625,626
*MASS,ELSET=M626
1.43491839736e+03
*ELEMENT,TYPE=MASS,ELSET=M627
20626,627
*MASS,ELSET=M627
9.90005400663e+02
*ELEMENT,TYPE=MASS,ELSET=M628
20627,628
*MASS,ELSET=M628
1.43414193708e+03
*ELEMENT,TYPE=MASS,ELSET=M629
20628,629
*MASS,ELSET=M629
1.99019239109e+03
*ELEMENT,TYPE=MASS,ELSET=M630
20629,630
*MASS,ELSET=M630
1.43336353697e+03
*ELEMENT,TYPE=MASS,ELSET=M631
20630,631
*MASS,ELSET=M631
9.88975463975e+02
*ELEMENT,TYPE=MASS,ELSET=M632
20631,632
*MASS,ELSET=M632
1.00136159094e+03
*ELEMENT,TYPE=MASS,ELSET=M633
20632,633
*MASS,ELSET=M633
1.18951113879e+03
*ELEMENT,TYPE=MASS,ELSET=M634
20633,634
*MASS,ELSET=M634
1.55407351243e+03
*ELEMENT,TYPE=MASS,ELSET=M635
20634,635
*MASS,ELSET=M635
1.43176559041e+03
*ELEMENT,TYPE=MASS,ELSET=M636
20635,636
*MASS,ELSET=M636
9.87917167967e+02
*ELEMENT,TYPE=MASS,ELSET=M637
20636,637
*MASS,ELSET=M637
1.43103004110e+03
*ELEMENT,TYPE=MASS,ELSET=M638
20637,638
*MASS,ELSET=M638
1.98607087004e+03
*ELEMENT,TYPE=MASS,ELSET=M639
20638,639
*MASS,ELSET=M639
1.43029314906e+03
*ELEMENT,TYPE=MASS,ELSET=M640
20639,640
*MASS,ELSET=M640
9.86942168219e+02
*ELEMENT,TYPE=MASS,ELSET=M641
20640,641
*MASS,ELSET=M641
1.42957748092e+03
*ELEMENT,TYPE=MASS,ELSET=M642
20641,642
*MASS,ELSET=M642
1.98414757253e+03
*ELEMENT,TYPE=MASS,ELSET=M643
20642,643
*MASS,ELSET=M643
1.42886076190e+03
*ELEMENT,TYPE=MASS,ELSET=M644
20643,644
*MASS,ELSET=M644
9.85993867030e+02
*ELEMENT,TYPE=MASS,ELSET=M645
20644,645
*MASS,ELSET=M645
1.42816496231e+03
*ELEMENT,TYPE=MASS,ELSET=M646
20645,646
*MASS,ELSET=M646
8.87392547408e+03
*ELEMENT,TYPE=MASS,ELSET=M647
20646,647
*MASS,ELSET=M647
1.42586590200e+03
*ELEMENT,TYPE=MASS,ELSET=M648
20647,648
*MASS,ELSET=M648
9.84011773873e+02
*ELEMENT,TYPE=MASS,ELSET=M649
20648,649
*MASS,ELSET=M649
1.42521353813e+03
*ELEMENT,TYPE=MASS,ELSET=M650
20649,650
*MASS,ELSET=M650
1.97837181128e+03
*ELEMENT,TYPE=MASS,ELSET=M651
20650,651
*MASS,ELSET=M651
1.42456105960e+03
*ELEMENT,TYPE=MASS,ELSET=M652
20651,652
*MASS,ELSET=M652
9.83148489848e+02
*ELEMENT,TYPE=MASS,ELSET=M653
20652,653
*MASS,ELSET=M653
1.42392852645e+03
*ELEMENT,TYPE=MASS,ELSET=M654
20653,654
*MASS,ELSET=M654
1.97667188038e+03
*ELEMENT,TYPE=MASS,ELSET=M655
20654,655
*MASS,ELSET=M655
1.42329617401e+03
*ELEMENT,TYPE=MASS,ELSET=M656
20655,656
*MASS,ELSET=M656
9.82311839977e+02
*ELEMENT,TYPE=MASS,ELSET=M657
20656,657
*MASS,ELSET=M657
1.42268346046e+03
*ELEMENT,TYPE=MASS,ELSET=M658
20657,658
*MASS,ELSET=M658
1.54719946859e+03
*ELEMENT,TYPE=MASS,ELSET=M659
20658,659
*MASS,ELSET=M659
1.18264094040e+03
*ELEMENT,TYPE=MASS,ELSET=M660
20659,660
*MASS,ELSET=M660
9.91480132237e+02
*ELEMENT,TYPE=MASS,ELSET=M661
20660,661
*MASS,ELSET=M661
9.81457160883e+02
*ELEMENT,TYPE=MASS,ELSET=M662
20661,662
*MASS,ELSET=M662
1.42141190068e+03
*ELEMENT,TYPE=MASS,ELSET=M663
20662,663
*MASS,ELSET=M663
1.97334394670e+03
*ELEMENT,TYPE=MASS,ELSET=M664
20663,664
*MASS,ELSET=M664
1.42082089740e+03
*ELEMENT,TYPE=MASS,ELSET=M665
20664,665
*MASS,ELSET=M665
9.80675229356e+02
*ELEMENT,TYPE=MASS,ELSET=M666
20665,666
*MASS,ELSET=M666
1.42025026792e+03
*ELEMENT,TYPE=MASS,ELSET=M667
20666,667
*MASS,ELSET=M667
1.97180938840e+03
*ELEMENT,TYPE=MASS,ELSET=M668
20667,668
*MASS,ELSET=M668
1.41967933669e+03
*ELEMENT,TYPE=MASS,ELSET=M669
20668,669
*MASS,ELSET=M669
9.79919889523e+02
*ELEMENT,TYPE=MASS,ELSET=M670
20669,670
*MASS,ELSET=M670
1.41912708353e+03
*ELEMENT,TYPE=MASS,ELSET=M671
20670,671
*MASS,ELSET=M671
1.97032515531e+03
*ELEMENT,TYPE=MASS,ELSET=M672
20671,672
*MASS,ELSET=M672
1.74284732918e+03
*ELEMENT,TYPE=MASS,ELSET=M673
20672,673
*MASS,ELSET=M673
9.79150936217e+02
*ELEMENT,TYPE=MASS,ELSET=M674
20673,674
*MASS,ELSET=M674
1.41798402541e+03
*ELEMENT,TYPE=MASS,ELSET=M675
20674,675
*MASS,ELSET=M675
1.96881516747e+03
*ELEMENT,TYPE=MASS,ELSET=M676
20675,676
*MASS,ELSET=M676
1.41745438652e+03
*ELEMENT,TYPE=MASS,ELSET=M677
20676,677
*MASS,ELSET=M677
9.78450237201e+02
*ELEMENT,TYPE=MASS,ELSET=M678
20677,678
*MASS,ELSET=M678
1.41694279126e+03
*ELEMENT,TYPE=MASS,ELSET=M679
20678,679
*MASS,ELSET=M679
1.96744018861e+03
*ELEMENT,TYPE=MASS,ELSET=M680
20679,680
*MASS,ELSET=M680
1.41643322074e+03
*ELEMENT,TYPE=MASS,ELSET=M681
20680,681
*MASS,ELSET=M681
9.77776093156e+02
*ELEMENT,TYPE=MASS,ELSET=M682
20681,682
*MASS,ELSET=M682
1.41594138488e+03
*ELEMENT,TYPE=MASS,ELSET=M683
20682,683
*MASS,ELSET=M683
1.96611830786e+03
*ELEMENT,TYPE=MASS,ELSET=M684
20683,684
*MASS,ELSET=M684
1.41545187458e+03
*ELEMENT,TYPE=MASS,ELSET=M685
20684,685
*MASS,ELSET=M685
7.86947801090e+03
*ELEMENT,TYPE=MASS,ELSET=M686
20685,686
*MASS,ELSET=M686
1.41387982391e+03
*ELEMENT,TYPE=MASS,ELSET=M687
20686,687
*MASS,ELSET=M687
1.96339884213e+03
*ELEMENT,TYPE=MASS,ELSET=M688
20687,688
*MASS,ELSET=M688
1.41343438720e+03
*ELEMENT,TYPE=MASS,ELSET=M689
20688,689
*MASS,ELSET=M689
9.75798067367e+02
*ELEMENT,TYPE=MASS,ELSET=M690
20689,690
*MASS,ELSET=M690
1.41300569543e+03
*ELEMENT,TYPE=MASS,ELSET=M691
20690,691
*MASS,ELSET=M691
1.96224665011e+03
*ELEMENT,TYPE=MASS,ELSET=M692
20691,692
*MASS,ELSET=M692
1.41258029512e+03
*ELEMENT,TYPE=MASS,ELSET=M693
20692,693
*MASS,ELSET=M693
9.75235293698e+02
*ELEMENT,TYPE=MASS,ELSET=M694
20693,694
*MASS,ELSET=M694
1.41217132988e+03
*ELEMENT,TYPE=MASS,ELSET=M695
20694,695
*MASS,ELSET=M695
1.96114747140e+03
*ELEMENT,TYPE=MASS,ELSET=M696
20695,696
*MASS,ELSET=M696
1.41176595918e+03
*ELEMENT,TYPE=MASS,ELSET=M697
20696,697
*MASS,ELSET=M697
9.74699021075e+02
*ELEMENT,TYPE=MASS,ELSET=M698
20697,698
*MASS,ELSET=M698
1.73563894036e+03
*ELEMENT,TYPE=MASS,ELSET=M699
20698,699
*MASS,ELSET=M699
1.96004375044e+03
*ELEMENT,TYPE=MASS,ELSET=M700
20699,700
*MASS,ELSET=M700
1.41094878024e+03
*ELEMENT,TYPE=MASS,ELSET=M701
20700,701
*MASS,ELSET=M701
9.74161223711e+02
*ELEMENT,TYPE=MASS,ELSET=M702
20701,702
*MASS,ELSET=M702
1.41058036138e+03
*ELEMENT,TYPE=MASS,ELSET=M703
20702,703
*MASS,ELSET=M703
1.95905353899e+03
*ELEMENT,TYPE=MASS,ELSET=M704
20703,704
*MASS,ELSET=M704
1.41021616195e+03
*ELEMENT,TYPE=MASS,ELSET=M705
20704,705
*MASS,ELSET=M705
9.73679423061e+02
*ELEMENT,TYPE=MASS,ELSET=M706
20705,706
*MASS,ELSET=M706
1.40986744953e+03
*ELEMENT,TYPE=MASS,ELSET=M707
20706,707
*MASS,ELSET=M707
1.95811628909e+03
*ELEMENT,TYPE=MASS,ELSET=M708
20707,708
*MASS,ELSET=M708
1.40952326109e+03
*ELEMENT,TYPE=MASS,ELSET=M709
20708,709
*MASS,ELSET=M709
9.73224097460e+02
*ELEMENT,TYPE=MASS,ELSET=M710
20709,710
*MASS,ELSET=M710
9.85683849494e+02
*ELEMENT,TYPE=MASS,ELSET=M711
20710,711
*MASS,ELSET=M711
1.17396499771e+03
*ELEMENT,TYPE=MASS,ELSET=M712
20711,712
*MASS,ELSET=M712
1.53101941895e+03
*ELEMENT,TYPE=MASS,ELSET=M713
20712,713
*MASS,ELSET=M713
1.40883428298e+03
*ELEMENT,TYPE=MASS,ELSET=M714
20713,714
*MASS,ELSET=M714
9.72771757488e+02
*ELEMENT,TYPE=MASS,ELSET=M715
20714,715
*MASS,ELSET=M715
1.40852608069e+03
*ELEMENT,TYPE=MASS,ELSET=M716
20715,716
*MASS,ELSET=M716
1.95635514167e+03
*ELEMENT,TYPE=MASS,ELSET=M717
20716,717
*MASS,ELSET=M717
1.40822303010e+03
*ELEMENT,TYPE=MASS,ELSET=M718
20717,718
*MASS,ELSET=M718
9.72370857077e+02
*ELEMENT,TYPE=MASS,ELSET=M719
20718,719
*MASS,ELSET=M719
1.40793451735e+03
*ELEMENT,TYPE=MASS,ELSET=M720
20719,720
*MASS,ELSET=M720
1.67268417097e+03
*ELEMENT,TYPE=MASS,ELSET=M721
20720,721
*MASS,ELSET=M721
7.52695037871e+03
*ELEMENT,TYPE=MASS,ELSET=M722
20721,722
*MASS,ELSET=M722
7.32903469611e+02
*ELEMENT,TYPE=MASS,ELSET=M723
20722,723
*MASS,ELSET=M723
2.94684142759e+02
*ELEMENT,TYPE=MASS,ELSET=M724
20723,724
*MASS,ELSET=M724
5.95204430881e+02
*ELEMENT,TYPE=MASS,ELSET=M725
20724,725
*MASS,ELSET=M725
6.84957519117e+02
*ELEMENT,TYPE=MASS,ELSET=M726
20725,726
*MASS,ELSET=M726
3.23711717178e+02
*ELEMENT,TYPE=MASS,ELSET=M727
20726,727
*MASS,ELSET=M727
5.07455744597e+03
*ELEMENT,TYPE=MASS,ELSET=M728
20727,728
*MASS,ELSET=M728
4.96789824167e+03
*ELEMENT,TYPE=MASS,ELSET=M729
20728,729
*MASS,ELSET=M729
1.57888383601e+03
*ELEMENT,TYPE=MASS,ELSET=M730
20729,730
*MASS,ELSET=M730
1.56807213032e+03
*ELEMENT,TYPE=MASS,ELSET=M1001
20730,1001
*MASS,ELSET=M1001
1.95635312519e+03
*ELEMENT,TYPE=MASS,ELSET=M1002
20731,1002
*MASS,ELSET=M1002
2.03198037926e+03
*ELEMENT,TYPE=MASS,ELSET=M1003
20732,1003
*MASS,ELSET=M1003
1.17898170007e+02
*ELEMENT,TYPE=MASS,ELSET=M1004
20733,1004
*MASS,ELSET=M1004
3.45927579003e+02
*ELEMENT,TYPE=MASS,ELSET=M1005
20734,1005
*MASS,ELSET=M1005
6.83465927180e+02
*ELEMENT,TYPE=MASS,ELSET=M1006
20735,1006
*MASS,ELSET=M1006
7.59885092253e+02
*ELEMENT,TYPE=MASS,ELSET=M1007
20736,1007
*MASS,ELSET=M1007
7.60774223191e+02
*ELEMENT,TYPE=MASS,ELSET=M1008
20737,1008
*MASS,ELSET=M1008
2.68642424247e+03
*ELEMENT,TYPE=MASS,ELSET=M1009
20738,1009
*MASS,ELSET=M1009
8.77363852125e+02
*ELEMENT,TYPE=MASS,ELSET=M1010
20739,1010
*MASS,ELSET=M1010
8.39922701876e+02
*ELEMENT,TYPE=MASS,ELSET=M1011
20740,1011
*MASS,ELSET=M1011
8.40602544703e+02
*ELEMENT,TYPE=MASS,ELSET=M1012
20741,1012
*MASS,ELSET=M1012
8.79560704719e+02
*ELEMENT,TYPE=MASS,ELSET=M1013
20742,1013
*MASS,ELSET=M1013
2.76758673299e+03
*ELEMENT,TYPE=MASS,ELSET=M1014
20743,1014
*MASS,ELSET=M1014
8.82697076569e+02
*ELEMENT,TYPE=MASS,ELSET=M1015
20744,1015
*MASS,ELSET=M1015
8.45064451034e+02
*ELEMENT,TYPE=MASS,ELSET=M1016
20745,1016
*MASS,ELSET=M1016
8.45782974080e+02
*ELEMENT,TYPE=MASS,ELSET=M1017
20746,1017
*MASS,ELSET=M1017
8.85018920856e+02
*ELEMENT,TYPE=MASS,ELSET=M1018
20747,1018
*MASS,ELSET=M1018
3.12362793523e+03
*ELEMENT,TYPE=MASS,ELSET=M1019
20748,1019
*MASS,ELSET=M1019
8.88643096564e+02
*ELEMENT,TYPE=MASS,ELSET=M1020
20749,1020
*MASS,ELSET=M1020
8.50794811981e+02
*ELEMENT,TYPE=MASS,ELSET=M1021
20750,1021
*MASS,ELSET=M1021
8.51554371518e+02
*ELEMENT,TYPE=MASS,ELSET=M1022
20751,1022
*MASS,ELSET=M1022
8.91097546677e+02
*ELEMENT,TYPE=MASS,ELSET=M1023
20752,1023
*MASS,ELSET=M1023
2.77979990680e+03
*ELEMENT,TYPE=MASS,ELSET=M1024
20753,1024
*MASS,ELSET=M1024
8.94568892693e+02
*ELEMENT,TYPE=MASS,ELSET=M1025
20754,1025
*MASS,ELSET=M1025
8.56503735756e+02
*ELEMENT,TYPE=MASS,ELSET=M1026
20755,1026
*MASS,ELSET=M1026
8.57302330092e+02
*ELEMENT,TYPE=MASS,ELSET=M1027
20756,1027
*MASS,ELSET=M1027
8.97149480346e+02
*ELEMENT,TYPE=MASS,ELSET=M1028
20757,1028
*MASS,ELSET=M1028
2.78619932020e+03
*ELEMENT,TYPE=MASS,ELSET=M1029
20758,1029
*MASS,ELSET=M1029
9.00782540640e+02
*ELEMENT,TYPE=MASS,ELSET=M1030
20759,1030
*MASS,ELSET=M1030
8.62488188456e+02
*ELEMENT,TYPE=MASS,ELSET=M1031
20760,1031
*MASS,ELSET=M1031
8.63326003363e+02
*ELEMENT,TYPE=MASS,ELSET=M1032
20761,1032
*MASS,ELSET=M1032
9.03489866152e+02
*ELEMENT,TYPE=MASS,ELSET=M1033
20762,1033
*MASS,ELSET=M1033
3.14318272871e+03
*ELEMENT,TYPE=MASS,ELSET=M1034
20763,1034
*MASS,ELSET=M1034
9.07652291884e+02
*ELEMENT,TYPE=MASS,ELSET=M1035
20764,1035
*MASS,ELSET=M1035
8.69102705546e+02
*ELEMENT,TYPE=MASS,ELSET=M1036
20765,1036
*MASS,ELSET=M1036
8.69982124188e+02
*ELEMENT,TYPE=MASS,ELSET=M1037
20766,1037
*MASS,ELSET=M1037
9.10494056200e+02
*ELEMENT,TYPE=MASS,ELSET=M1038
20767,1038
*MASS,ELSET=M1038
2.80029616010e+03
*ELEMENT,TYPE=MASS,ELSET=M1039
20768,1039
*MASS,ELSET=M1039
9.14456994435e+02
*ELEMENT,TYPE=MASS,ELSET=M1040
20769,1040
*MASS,ELSET=M1040
8.75652938803e+02
*ELEMENT,TYPE=MASS,ELSET=M1041
20770,1041
*MASS,ELSET=M1041
8.76571987189e+02
*ELEMENT,TYPE=MASS,ELSET=M1042
20771,1042
*MASS,ELSET=M1042
9.17428908552e+02
*ELEMENT,TYPE=MASS,ELSET=M1043
20772,1043
*MASS,ELSET=M1043
2.80761750132e+03
*ELEMENT,TYPE=MASS,ELSET=M1044
20773,1044
*MASS,ELSET=M1044
9.21552971046e+02
*ELEMENT,TYPE=MASS,ELSET=M1045
20774,1045
*MASS,ELSET=M1045
8.82482107679e+02
*ELEMENT,TYPE=MASS,ELSET=M1046
20775,1046
*MASS,ELSET=M1046
8.83440939774e+02
*ELEMENT,TYPE=MASS,ELSET=M1047
20776,1047
*MASS,ELSET=M1047
9.24651364555e+02
*ELEMENT,TYPE=MASS,ELSET=M1048
20777,1048
*MASS,ELSET=M1048
3.16553963419e+03
*ELEMENT,TYPE=MASS,ELSET=M1049
20778,1049
*MASS,ELSET=M1049
9.29341954438e+02
*ELEMENT,TYPE=MASS,ELSET=M1050
20779,1050
*MASS,ELSET=M1050
8.89976541638e+02
*ELEMENT,TYPE=MASS,ELSET=M1051
20780,1051
*MASS,ELSET=M1051
8.90977626366e+02
*ELEMENT,TYPE=MASS,ELSET=M1052
20781,1052
*MASS,ELSET=M1052
9.32576883456e+02
*ELEMENT,TYPE=MASS,ELSET=M1053
20782,1053
*MASS,ELSET=M1053
2.82359127026e+03
*ELEMENT,TYPE=MASS,ELSET=M1054
20783,1054
*MASS,ELSET=M1054
9.37023521735e+02
*ELEMENT,TYPE=MASS,ELSET=M1055
20784,1055
*MASS,ELSET=M1055
8.97366198816e+02
*ELEMENT,TYPE=MASS,ELSET=M1056
20785,1056
*MASS,ELSET=M1056
8.98407591336e+02
*ELEMENT,TYPE=MASS,ELSET=M1057
20786,1057
*MASS,ELSET=M1057
9.40388701251e+02
*ELEMENT,TYPE=MASS,ELSET=M1058
20787,1058
*MASS,ELSET=M1058
2.74927405617e+03
*ELEMENT,TYPE=MASS,ELSET=M1059
20788,1059
*MASS,ELSET=M1059
8.21217016285e+02
*ELEMENT,TYPE=MASS,ELSET=M1060
20789,1060
*MASS,ELSET=M1060
8.22487102438e+02
*ELEMENT,TYPE=MASS,ELSET=M1061
20790,1061
*MASS,ELSET=M1061
7.82168360748e+02
*ELEMENT,TYPE=MASS,ELSET=M1062
20791,1062
*MASS,ELSET=M1062
4.26338713003e+02
*ELEMENT,TYPE=MASS,ELSET=M1063
20792,1063
*MASS,ELSET=M1063
7.91196960422e+01
*ELEMENT,TYPE=MASS,ELSET=M1064
20793,1064
*MASS,ELSET=M1064
1.31866730429e+02
*ELEMENT,TYPE=MASS,ELSET=M1065
20794,1065
*MASS,ELSET=M1065
1.44511476062e+02
*ELEMENT,TYPE=MASS,ELSET=M1066
20795,1066
*MASS,ELSET=M1066
7.49558945771e+01
*ELEMENT,TYPE=MASS,ELSET=M1067
20796,1067
*MASS,ELSET=M1067
4.65723006761e+02
*ELEMENT,TYPE=MASS,ELSET=M1068
20797,1068
*MASS,ELSET=M1068
8.14645093104e+02
*ELEMENT,TYPE=MASS,ELSET=M1069
20798,1069
*MASS,ELSET=M1069
7.75181933801e+02
*ELEMENT,TYPE=MASS,ELSET=M1070
20799,1070
*MASS,ELSET=M1070
7.74547455366e+02
*ELEMENT,TYPE=MASS,ELSET=M1071
20800,1071
*MASS,ELSET=M1071
7.73916956137e+02
*ELEMENT,TYPE=MASS,ELSET=M1072
20801,1072
*MASS,ELSET=M1072
8.50550903535e+02
*ELEMENT,TYPE=MASS,ELSET=M1073
20802,1073
*MASS,ELSET=M1073
2.77432388102e+03
*ELEMENT,TYPE=MASS,ELSET=M1074
20803,1074
*MASS,ELSET=M1074
8.85922421713e+02
*ELEMENT,TYPE=MASS,ELSET=M1075
20804,1075
*MASS,ELSET=M1075
8.46640676155e+02
*ELEMENT,TYPE=MASS,ELSET=M1076
20805,1076
*MASS,ELSET=M1076
8.45915925732e+02
*ELEMENT,TYPE=MASS,ELSET=M1077
20806,1077
*MASS,ELSET=M1077
8.83580454213e+02
*ELEMENT,TYPE=MASS,ELSET=M1078
20807,1078
*MASS,ELSET=M1078
2.76849480419e+03
*ELEMENT,TYPE=MASS,ELSET=M1079
20808,1079
*MASS,ELSET=M1079
8.80417802430e+02
*ELEMENT,TYPE=MASS,ELSET=M1080
20809,1080
*MASS,ELSET=M1080
8.41415888983e+02
*ELEMENT,TYPE=MASS,ELSET=M1081
20810,1081
*MASS,ELSET=M1081
8.40729845134e+02
*ELEMENT,TYPE=MASS,ELSET=M1082
20811,1082
*MASS,ELSET=M1082
8.78555711252e+02
*ELEMENT,TYPE=MASS,ELSET=M1083
20812,1083
*MASS,ELSET=M1083
3.11326294207e+03
*ELEMENT,TYPE=MASS,ELSET=M1084
20813,1084
*MASS,ELSET=M1084
8.74914773128e+02
*ELEMENT,TYPE=MASS,ELSET=M1085
20814,1085
*MASS,ELSET=M1085
8.36194737971e+02
*ELEMENT,TYPE=MASS,ELSET=M1086
20815,1086
*MASS,ELSET=M1086
8.35549423971e+02
*ELEMENT,TYPE=MASS,ELSET=M1087
20816,1087
*MASS,ELSET=M1087
8.72829497469e+02
*ELEMENT,TYPE=MASS,ELSET=M1088
20817,1088
*MASS,ELSET=M1088
2.75745280972e+03
*ELEMENT,TYPE=MASS,ELSET=M1089
20818,1089
*MASS,ELSET=M1089
8.70004868682e+02
*ELEMENT,TYPE=MASS,ELSET=M1090
20819,1090
*MASS,ELSET=M1090
8.31538469433e+02
*ELEMENT,TYPE=MASS,ELSET=M1091
20820,1091
*MASS,ELSET=M1091
8.30931541338e+02
*ELEMENT,TYPE=MASS,ELSET=M1092
20821,1092
*MASS,ELSET=M1092
8.68043633686e+02
*ELEMENT,TYPE=MASS,ELSET=M1093
20822,1093
*MASS,ELSET=M1093
2.75254520550e+03
*ELEMENT,TYPE=MASS,ELSET=M1094
20823,1094
*MASS,ELSET=M1094
8.65384460932e+02
*ELEMENT,TYPE=MASS,ELSET=M1095
20824,1095
*MASS,ELSET=M1095
8.27158959978e+02
*ELEMENT,TYPE=MASS,ELSET=M1096
20825,1096
*MASS,ELSET=M1096
8.26590275239e+02
*ELEMENT,TYPE=MASS,ELSET=M1097
20826,1097
*MASS,ELSET=M1097
8.63546806008e+02
*ELEMENT,TYPE=MASS,ELSET=M1098
20827,1098
*MASS,ELSET=M1098
3.09790582511e+03
*ELEMENT,TYPE=MASS,ELSET=M1099
20828,1099
*MASS,ELSET=M1099
8.60814342802e+02
*ELEMENT,TYPE=MASS,ELSET=M1100
20829,1100
*MASS,ELSET=M1100
8.22829692984e+02
*ELEMENT,TYPE=MASS,ELSET=M1101
20830,1101
*MASS,ELSET=M1101
8.22301298299e+02
*ELEMENT,TYPE=MASS,ELSET=M1102
20831,1102
*MASS,ELSET=M1102
8.59106881650e+02
*ELEMENT,TYPE=MASS,ELSET=M1103
20832,1103
*MASS,ELSET=M1103
2.74339864843e+03
*ELEMENT,TYPE=MASS,ELSET=M1104
20833,1104
*MASS,ELSET=M1104
8.56790255786e+02
*ELEMENT,TYPE=MASS,ELSET=M1105
20834,1105
*MASS,ELSET=M1105
8.19020295668e+02
*ELEMENT,TYPE=MASS,ELSET=M1106
20835,1106
*MASS,ELSET=M1106
8.18529878639e+02
*ELEMENT,TYPE=MASS,ELSET=M1107
20836,1107
*MASS,ELSET=M1107
8.55205516111e+02
*ELEMENT,TYPE=MASS,ELSET=M1108
20837,1108
*MASS,ELSET=M1108
2.73941505540e+03
*ELEMENT,TYPE=MASS,ELSET=M1109
20838,1109
*MASS,ELSET=M1109
8.53056376894e+02
*ELEMENT,TYPE=MASS,ELSET=M1110
20839,1110
*MASS,ELSET=M1110
8.15488365874e+02
*ELEMENT,TYPE=MASS,ELSET=M1111
20840,1111
*MASS,ELSET=M1111
8.15035810780e+02
*ELEMENT,TYPE=MASS,ELSET=M1112
20841,1112
*MASS,ELSET=M1112
8.51593984727e+02
*ELEMENT,TYPE=MASS,ELSET=M1113
20842,1113
*MASS,ELSET=M1113
3.08572608081e+03
*ELEMENT,TYPE=MASS,ELSET=M1114
20843,1114
*MASS,ELSET=M1114
8.49422579561e+02
*ELEMENT,TYPE=MASS,ELSET=M1115
20844,1115
*MASS,ELSET=M1115
8.12054334476e+02
*ELEMENT,TYPE=MASS,ELSET=M1116
20845,1116
*MASS,ELSET=M1116
8.11641715860e+02
*ELEMENT,TYPE=MASS,ELSET=M1117
20846,1117
*MASS,ELSET=M1117
8.48089238627e+02
*ELEMENT,TYPE=MASS,ELSET=M1118
20847,1118
*MASS,ELSET=M1118
2.73217018612e+03
*ELEMENT,TYPE=MASS,ELSET=M1119
20848,1119
*MASS,ELSET=M1119
8.46286610453e+02
*ELEMENT,TYPE=MASS,ELSET=M1120
20849,1120
*MASS,ELSET=M1120
8.09094094514e+02
*ELEMENT,TYPE=MASS,ELSET=M1121
20850,1121
*MASS,ELSET=M1121
8.08719127325e+02
*ELEMENT,TYPE=MASS,ELSET=M1122
20851,1122
*MASS,ELSET=M1122
8.45074936804e+02
*ELEMENT,TYPE=MASS,ELSET=M1123
20852,1123
*MASS,ELSET=M1123
2.72911311737e+03
*ELEMENT,TYPE=MASS,ELSET=M1124
20853,1124
*MASS,ELSET=M1124
8.43441511766e+02
*ELEMENT,TYPE=MASS,ELSET=M1125
20854,1125
*MASS,ELSET=M1125
8.06411983693e+02
*ELEMENT,TYPE=MASS,ELSET=M1126
20855,1126
*MASS,ELSET=M1126
8.06074579089e+02
*ELEMENT,TYPE=MASS,ELSET=M1127
20856,1127
*MASS,ELSET=M1127
8.42351218337e+02
*ELEMENT,TYPE=MASS,ELSET=M1128
20857,1128
*MASS,ELSET=M1128
2.96671137872e+03
*ELEMENT,TYPE=MASS,ELSET=M1129
20858,1129
*MASS,ELSET=M1129
7.31122628003e+02
*ELEMENT,TYPE=MASS,ELSET=M1130
20859,1130
*MASS,ELSET=M1130
8.03958743081e+02
*ELEMENT,TYPE=MASS,ELSET=M1131
20860,1131
*MASS,ELSET=M1131
8.03659639862e+02
*ELEMENT,TYPE=MASS,ELSET=M1132
20861,1132
*MASS,ELSET=M1132
7.30356329307e+02
*ELEMENT,TYPE=MASS,ELSET=M1133
20862,1133
*MASS,ELSET=M1133
2.50499493772e+03
*ELEMENT,TYPE=MASS,ELSET=M1134
20863,1134
*MASS,ELSET=M1134
7.29299141969e+02
*ELEMENT,TYPE=MASS,ELSET=M1135
20864,1135
*MASS,ELSET=M1135
8.01984453208e+02
*ELEMENT,TYPE=MASS,ELSET=M1136
20865,1136
*MASS,ELSET=M1136
8.01720038126e+02
*ELEMENT,TYPE=MASS,ELSET=M1137
20866,1137
*MASS,ELSET=M1137
7.28621713848e+02
*ELEMENT,TYPE=MASS,ELSET=M1138
20867,1138
*MASS,ELSET=M1138
2.50349177913e+03
*ELEMENT,TYPE=MASS,ELSET=M1139
20868,1139
*MASS,ELSET=M1139
7.03443233348e+02
*ELEMENT,TYPE=MASS,ELSET=M1140
20869,1140
*MASS,ELSET=M1140
7.51762820720e+02
*ELEMENT,TYPE=MASS,ELSET=M1141
20870,1141
*MASS,ELSET=M1141
7.51559650385e+02
*ELEMENT,TYPE=MASS,ELSET=M1142
20871,1142
*MASS,ELSET=M1142
7.02897569022e+02
*ELEMENT,TYPE=MASS,ELSET=M1143
20872,1143
*MASS,ELSET=M1143
2.85227129487e+03
*ELEMENT,TYPE=MASS,ELSET=M1144
20873,1144
*MASS,ELSET=M1144
7.26258350375e+02
*ELEMENT,TYPE=MASS,ELSET=M1145
20874,1145
*MASS,ELSET=M1145
7.98703695855e+02
*ELEMENT,TYPE=MASS,ELSET=M1146
20875,1146
*MASS,ELSET=M1146
7.98509787078e+02
*ELEMENT,TYPE=MASS,ELSET=M1147
20876,1147
*MASS,ELSET=M1147
7.25761558523e+02
*ELEMENT,TYPE=MASS,ELSET=M1148
20877,1148
*MASS,ELSET=M1148
2.50103614517e+03
*ELEMENT,TYPE=MASS,ELSET=M1149
20878,1149
*MASS,ELSET=M1149
7.25096572132e+02
*ELEMENT,TYPE=MASS,ELSET=M1150
20879,1150
*MASS,ELSET=M1150
7.97457156107e+02
*ELEMENT,TYPE=MASS,ELSET=M1151
20880,1151
*MASS,ELSET=M1151
7.97297798278e+02
*ELEMENT,TYPE=MASS,ELSET=M1152
20881,1152
*MASS,ELSET=M1152
7.24688299375e+02
*ELEMENT,TYPE=MASS,ELSET=M1153
20882,1153
*MASS,ELSET=M1153
2.57254372415e+03
*ELEMENT,TYPE=MASS,ELSET=M1154
20883,1154
*MASS,ELSET=M1154
7.96556344957e+02
*ELEMENT,TYPE=MASS,ELSET=M1155
20884,1155
*MASS,ELSET=M1155
7.96427452451e+02
*ELEMENT,TYPE=MASS,ELSET=M1156
20885,1156
*MASS,ELSET=M1156
7.96303514972e+02
*ELEMENT,TYPE=MASS,ELSET=M1157
20886,1157
*MASS,ELSET=M1157
7.96155583790e+02
*ELEMENT,TYPE=MASS,ELSET=M1158
20887,1158
*MASS,ELSET=M1158
2.92183910440e+03
*ELEMENT,TYPE=MASS,ELSET=M1159
20888,1159
*MASS,ELSET=M1159
7.23386799131e+02
*ELEMENT,TYPE=MASS,ELSET=M1160
20889,1160
*MASS,ELSET=M1160
7.95611078387e+02
*ELEMENT,TYPE=MASS,ELSET=M1161
20890,1161
*MASS,ELSET=M1161
7.95524686326e+02
*ELEMENT,TYPE=MASS,ELSET=M1162
20891,1162
*MASS,ELSET=M1162
7.23107771895e+02
*ELEMENT,TYPE=MASS,ELSET=M1163
20892,1163
*MASS,ELSET=M1163
2.49885565808e+03
*ELEMENT,TYPE=MASS,ELSET=M1164
20893,1164
*MASS,ELSET=M1164
7.22904789387e+02
*ELEMENT,TYPE=MASS,ELSET=M1165
20894,1165
*MASS,ELSET=M1165
7.95112068232e+02
*ELEMENT,TYPE=MASS,ELSET=M1166
20895,1166
*MASS,ELSET=M1166
7.95060164478e+02
*ELEMENT,TYPE=MASS,ELSET=M1167
20896,1167
*MASS,ELSET=M1167
7.22713980735e+02
*ELEMENT,TYPE=MASS,ELSET=M1168
20897,1168
*MASS,ELSET=M1168
2.49855973974e+03
*ELEMENT,TYPE=MASS,ELSET=M1169
20898,1169
*MASS,ELSET=M1169
6.98554567175e+02
*ELEMENT,TYPE=MASS,ELSET=M1170
20899,1170
*MASS,ELSET=M1170
7.46681433188e+02
*ELEMENT,TYPE=MASS,ELSET=M1171
20900,1171
*MASS,ELSET=M1171
7.46665658946e+02
*ELEMENT,TYPE=MASS,ELSET=M1172
20901,1172
*MASS,ELSET=M1172
6.98454330596e+02
*ELEMENT,TYPE=MASS,ELSET=M1173
20902,1173
*MASS,ELSET=M1173
2.84855354772e+03
*ELEMENT,TYPE=MASS,ELSET=M1174
20903,1174
*MASS,ELSET=M1174
7.22598126111e+02
*ELEMENT,TYPE=MASS,ELSET=M1175
20904,1175
*MASS,ELSET=M1175
7.94838692464e+02
*ELEMENT,TYPE=MASS,ELSET=M1176
20905,1176
*MASS,ELSET=M1176
7.94857029063e+02
*ELEMENT,TYPE=MASS,ELSET=M1177
20906,1177
*MASS,ELSET=M1177
7.22587360371e+02
*ELEMENT,TYPE=MASS,ELSET=M1178
20907,1178
*MASS,ELSET=M1178
2.49856503979e+03
*ELEMENT,TYPE=MASS,ELSET=M1179
20908,1179
*MASS,ELSET=M1179
7.22779398970e+02
*ELEMENT,TYPE=MASS,ELSET=M1180
20909,1180
*MASS,ELSET=M1180
7.95069354507e+02
*ELEMENT,TYPE=MASS,ELSET=M1181
20910,1181
*MASS,ELSET=M1181
7.95122169931e+02
*ELEMENT,TYPE=MASS,ELSET=M1182
20911,1182
*MASS,ELSET=M1182
7.22856892165e+02
*ELEMENT,TYPE=MASS,ELSET=M1183
20912,1183
*MASS,ELSET=M1183
2.49886616049e+03
*ELEMENT,TYPE=MASS,ELSET=M1184
20913,1184
*MASS,ELSET=M1184
6.99071837757e+02
*ELEMENT,TYPE=MASS,ELSET=M1185
20914,1185
*MASS,ELSET=M1185
7.47320800389e+02
*ELEMENT,TYPE=MASS,ELSET=M1186
20915,1186
*MASS,ELSET=M1186
7.47397447384e+02
*ELEMENT,TYPE=MASS,ELSET=M1187
20916,1187
*MASS,ELSET=M1187
6.99219659470e+02
*ELEMENT,TYPE=MASS,ELSET=M1188
20917,1188
*MASS,ELSET=M1188
2.84945998883e+03
*ELEMENT,TYPE=MASS,ELSET=M1189
20918,1189
*MASS,ELSET=M1189
7.23823614337e+02
*ELEMENT,TYPE=MASS,ELSET=M1190
20919,1190
*MASS,ELSET=M1190
7.96281798567e+02
*ELEMENT,TYPE=MASS,ELSET=M1191
20920,1191
*MASS,ELSET=M1191
7.96404846942e+02
*ELEMENT,TYPE=MASS,ELSET=M1192
20921,1192
*MASS,ELSET=M1192
7.24080946009e+02
*ELEMENT,TYPE=MASS,ELSET=M1193
20922,1193
*MASS,ELSET=M1193
2.50008681989e+03
*ELEMENT,TYPE=MASS,ELSET=M1194
20923,1194
*MASS,ELSET=M1194
7.24667552674e+02
*ELEMENT,TYPE=MASS,ELSET=M1195
20924,1195
*MASS,ELSET=M1195
7.97241469982e+02
*ELEMENT,TYPE=MASS,ELSET=M1196
20925,1196
*MASS,ELSET=M1196
7.97399036404e+02
*ELEMENT,TYPE=MASS,ELSET=M1197
20926,1197
*MASS,ELSET=M1197
7.25013248101e+02
*ELEMENT,TYPE=MASS,ELSET=M1198
20927,1198
*MASS,ELSET=M1198
2.57355420168e+03
*ELEMENT,TYPE=MASS,ELSET=M1199
20928,1199
*MASS,ELSET=M1199
7.98316549759e+02
*ELEMENT,TYPE=MASS,ELSET=M1200
20929,1200
*MASS,ELSET=M1200
7.98475579076e+02
*ELEMENT,TYPE=MASS,ELSET=M1201
20930,1201
*MASS,ELSET=M1201
7.98668597938e+02
*ELEMENT,TYPE=MASS,ELSET=M1202
20931,1202
*MASS,ELSET=M1202
7.98866585599e+02
*ELEMENT,TYPE=MASS,ELSET=M1203
20932,1203
*MASS,ELSET=M1203
2.92489754567e+03
*ELEMENT,TYPE=MASS,ELSET=M1204
20933,1204
*MASS,ELSET=M1204
7.27142149130e+02
*ELEMENT,TYPE=MASS,ELSET=M1205
20934,1205
*MASS,ELSET=M1205
8.00061873121e+02
*ELEMENT,TYPE=MASS,ELSET=M1206
20935,1206
*MASS,ELSET=M1206
8.00292570660e+02
*ELEMENT,TYPE=MASS,ELSET=M1207
20936,1207
*MASS,ELSET=M1207
7.27733193328e+02
*ELEMENT,TYPE=MASS,ELSET=M1208
20937,1208
*MASS,ELSET=M1208
2.50352913726e+03
*ELEMENT,TYPE=MASS,ELSET=M1209
20938,1209
*MASS,ELSET=M1209
7.28664934750e+02
*ELEMENT,TYPE=MASS,ELSET=M1210
20939,1210
*MASS,ELSET=M1210
8.01768417053e+02
*ELEMENT,TYPE=MASS,ELSET=M1211
20940,1211
*MASS,ELSET=M1211
8.02033751935e+02
*ELEMENT,TYPE=MASS,ELSET=M1212
20941,1212
*MASS,ELSET=M1212
7.29344719388e+02
*ELEMENT,TYPE=MASS,ELSET=M1213
20942,1213
*MASS,ELSET=M1213
2.50503749432e+03
*ELEMENT,TYPE=MASS,ELSET=M1214
20943,1214
*MASS,ELSET=M1214
7.06050654178e+02
*ELEMENT,TYPE=MASS,ELSET=M1215
20944,1215
*MASS,ELSET=M1215
7.54987414043e+02
*ELEMENT,TYPE=MASS,ELSET=M1216
20945,1216
*MASS,ELSET=M1216
7.55251772735e+02
*ELEMENT,TYPE=MASS,ELSET=M1217
20946,1217
*MASS,ELSET=M1217
7.06760655015e+02
*ELEMENT,TYPE=MASS,ELSET=M1218
20947,1218
*MASS,ELSET=M1218
2.96671211477e+03
*ELEMENT,TYPE=MASS,ELSET=M1219
20948,1219
*MASS,ELSET=M1219
8.42352050464e+02
*ELEMENT,TYPE=MASS,ELSET=M1220
20949,1220
*MASS,ELSET=M1220
8.06075387697e+02
*ELEMENT,TYPE=MASS,ELSET=M1221
20950,1221
*MASS,ELSET=M1221
8.06412804412e+02
*ELEMENT,TYPE=MASS,ELSET=M1222
20951,1222
*MASS,ELSET=M1222
8.43442383027e+02
*ELEMENT,TYPE=MASS,ELSET=M1223
20952,1223
*MASS,ELSET=M1223
2.72911405505e+03
*ELEMENT,TYPE=MASS,ELSET=M1224
20953,1224
*MASS,ELSET=M1224
8.45075862751e+02
*ELEMENT,TYPE=MASS,ELSET=M1225
20954,1225
*MASS,ELSET=M1225
8.08720025689e+02
*ELEMENT,TYPE=MASS,ELSET=M1226
20955,1226
*MASS,ELSET=M1226
8.09095005016e+02
*ELEMENT,TYPE=MASS,ELSET=M1227
20956,1227
*MASS,ELSET=M1227
8.46287575615e+02
*ELEMENT,TYPE=MASS,ELSET=M1228
20957,1228
*MASS,ELSET=M1228
2.36351182582e+03
*ELEMENT,TYPE=MASS,ELSET=M1229
20958,1229
*MASS,ELSET=M1229
6.02175721906e+02
*ELEMENT,TYPE=MASS,ELSET=M1230
20959,1230
*MASS,ELSET=M1230
1.05727292989e+03
*ELEMENT,TYPE=MASS,ELSET=M1231
20960,1231
*MASS,ELSET=M1231
1.05796963465e+03
*ELEMENT,TYPE=MASS,ELSET=M1232
20961,1232
*MASS,ELSET=M1232
9.72452571998e+02
*ELEMENT,TYPE=MASS,ELSET=M1233
20962,1233
*MASS,ELSET=M1233
3.08572721694e+03
*ELEMENT,TYPE=MASS,ELSET=M1234
20963,1234
*MASS,ELSET=M1234
8.51595103311e+02
*ELEMENT,TYPE=MASS,ELSET=M1235
20964,1235
*MASS,ELSET=M1235
8.15036893479e+02
*ELEMENT,TYPE=MASS,ELSET=M1236
20965,1236
*MASS,ELSET=M1236
8.15489460783e+02
*ELEMENT,TYPE=MASS,ELSET=M1237
20966,1237
*MASS,ELSET=M1237
8.53057534914e+02
*ELEMENT,TYPE=MASS,ELSET=M1238
20967,1238
*MASS,ELSET=M1238
2.73941629202e+03
*ELEMENT,TYPE=MASS,ELSET=M1239
20968,1239
*MASS,ELSET=M1239
8.55206728275e+02
*ELEMENT,TYPE=MASS,ELSET=M1240
20969,1240
*MASS,ELSET=M1240
8.18531050875e+02
*ELEMENT,TYPE=MASS,ELSET=M1241
20970,1241
*MASS,ELSET=M1241
8.19021480142e+02
*ELEMENT,TYPE=MASS,ELSET=M1242
20971,1242
*MASS,ELSET=M1242
8.56791507483e+02
*ELEMENT,TYPE=MASS,ELSET=M1243
20972,1243
*MASS,ELSET=M1243
2.74339998270e+03
*ELEMENT,TYPE=MASS,ELSET=M1244
20973,1244
*MASS,ELSET=M1244
8.59108187290e+02
*ELEMENT,TYPE=MASS,ELSET=M1245
20974,1245
*MASS,ELSET=M1245
8.22302559985e+02
*ELEMENT,TYPE=MASS,ELSET=M1246
20975,1246
*MASS,ELSET=M1246
8.22830966946e+02
*ELEMENT,TYPE=MASS,ELSET=M1247
20976,1247
*MASS,ELSET=M1247
8.60815688099e+02
*ELEMENT,TYPE=MASS,ELSET=M1248
20977,1248
*MASS,ELSET=M1248
3.09790725959e+03
*ELEMENT,TYPE=MASS,ELSET=M1249
20978,1249
*MASS,ELSET=M1249
8.63548210127e+02
*ELEMENT,TYPE=MASS,ELSET=M1250
20979,1250
*MASS,ELSET=M1250
8.26591631163e+02
*ELEMENT,TYPE=MASS,ELSET=M1251
20980,1251
*MASS,ELSET=M1251
8.27160328221e+02
*ELEMENT,TYPE=MASS,ELSET=M1252
20981,1252
*MASS,ELSET=M1252
8.65385904859e+02
*ELEMENT,TYPE=MASS,ELSET=M1253
20982,1253
*MASS,ELSET=M1253
2.75254674010e+03
*ELEMENT,TYPE=MASS,ELSET=M1254
20983,1254
*MASS,ELSET=M1254
8.68045131086e+02
*ELEMENT,TYPE=MASS,ELSET=M1255
20984,1255
*MASS,ELSET=M1255
8.30932986550e+02
*ELEMENT,TYPE=MASS,ELSET=M1256
20985,1256
*MASS,ELSET=M1256
8.31539926992e+02
*ELEMENT,TYPE=MASS,ELSET=M1257
20986,1257
*MASS,ELSET=M1257
8.70006405998e+02
*ELEMENT,TYPE=MASS,ELSET=M1258
20987,1258
*MASS,ELSET=M1258
2.75745444169e+03
*ELEMENT,TYPE=MASS,ELSET=M1259
20988,1259
*MASS,ELSET=M1259
8.72831088106e+02
*ELEMENT,TYPE=MASS,ELSET=M1260
20989,1260
*MASS,ELSET=M1260
8.35550958377e+02
*ELEMENT,TYPE=MASS,ELSET=M1261
20990,1261
*MASS,ELSET=M1261
8.36196284749e+02
*ELEMENT,TYPE=MASS,ELSET=M1262
20991,1262
*MASS,ELSET=M1262
8.74916403811e+02
*ELEMENT,TYPE=MASS,ELSET=M1263
20992,1263
*MASS,ELSET=M1263
3.11290956300e+03
*ELEMENT,TYPE=MASS,ELSET=M1264
20993,1264
*MASS,ELSET=M1264
8.78202001169e+02
*ELEMENT,TYPE=MASS,ELSET=M1265
20994,1265
*MASS,ELSET=M1265
8.40730895545e+02
*ELEMENT,TYPE=MASS,ELSET=M1266
20995,1266
*MASS,ELSET=M1266
8.41416947432e+02
*ELEMENT,TYPE=MASS,ELSET=M1267
20996,1267
*MASS,ELSET=M1267
8.80418917760e+02
*ELEMENT,TYPE=MASS,ELSET=M1268
20997,1268
*MASS,ELSET=M1268
2.76849598575e+03
*ELEMENT,TYPE=MASS,ELSET=M1269
20998,1269
*MASS,ELSET=M1269
8.83581603572e+02
*ELEMENT,TYPE=MASS,ELSET=M1270
20999,1270
*MASS,ELSET=M1270
8.45917033553e+02
*ELEMENT,TYPE=MASS,ELSET=M1271
21000,1271
*MASS,ELSET=M1271
8.46641792052e+02
*ELEMENT,TYPE=MASS,ELSET=M1272
21001,1272
*MASS,ELSET=M1272
8.85923597167e+02
*ELEMENT,TYPE=MASS,ELSET=M1273
21002,1273
*MASS,ELSET=M1273
2.69664281234e+03
*ELEMENT,TYPE=MASS,ELSET=M1274
21003,1274
*MASS,ELSET=M1274
7.72806842868e+02
*ELEMENT,TYPE=MASS,ELSET=M1275
21004,1275
*MASS,ELSET=M1275
7.73791807054e+02
*ELEMENT,TYPE=MASS,ELSET=M1276
21005,1276
*MASS,ELSET=M1276
7.74421513844e+02
*ELEMENT,TYPE=MASS,ELSET=M1277
21006,1277
*MASS,ELSET=M1277
7.75055199174e+02
*ELEMENT,TYPE=MASS,ELSET=M1278
21007,1278
*MASS,ELSET=M1278
8.92157355248e+02
*ELEMENT,TYPE=MASS,ELSET=M1279
21008,1279
*MASS,ELSET=M1279
5.43298858904e+02
*ELEMENT,TYPE=MASS,ELSET=M1280
21009,1280
*MASS,ELSET=M1280
7.49559189043e+01
*ELEMENT,TYPE=MASS,ELSET=M1281
21010,1281
*MASS,ELSET=M1281
1.44511476062e+02
*ELEMENT,TYPE=MASS,ELSET=M1282
21011,1282
*MASS,ELSET=M1282
1.31866730429e+02
*ELEMENT,TYPE=MASS,ELSET=M1283
21012,1283
*MASS,ELSET=M1283
7.64188151969e+01
*ELEMENT,TYPE=MASS,ELSET=M1284
21013,1284
*MASS,ELSET=M1284
1.50948008108e+02
*ELEMENT,TYPE=MASS,ELSET=M1285
21014,1285
*MASS,ELSET=M1285
4.89846251746e+02
*ELEMENT,TYPE=MASS,ELSET=M1286
21015,1286
*MASS,ELSET=M1286
7.83324928166e+02
*ELEMENT,TYPE=MASS,ELSET=M1287
21016,1287
*MASS,ELSET=M1287
7.82641164924e+02
*ELEMENT,TYPE=MASS,ELSET=M1288
21017,1288
*MASS,ELSET=M1288
7.81961421959e+02
*ELEMENT,TYPE=MASS,ELSET=M1289
21018,1289
*MASS,ELSET=M1289
7.81648680637e+02
*ELEMENT,TYPE=MASS,ELSET=M1290
21019,1290
*MASS,ELSET=M1290
2.68671685782e+03
*ELEMENT,TYPE=MASS,ELSET=M1291
21020,1291
*MASS,ELSET=M1291
9.14454902755e+02
*ELEMENT,TYPE=MASS,ELSET=M1292
21021,1292
*MASS,ELSET=M1292
9.32990511556e+02
*ELEMENT,TYPE=MASS,ELSET=M1293
21022,1293
*MASS,ELSET=M1293
9.32056833644e+02
*ELEMENT,TYPE=MASS,ELSET=M1294
21023,1294
*MASS,ELSET=M1294
9.50508994241e+02
*ELEMENT,TYPE=MASS,ELSET=M1295
21024,1295
*MASS,ELSET=M1295
2.77749799093e+03
*ELEMENT,TYPE=MASS,ELSET=M1296
21025,1296
*MASS,ELSET=M1296
9.08154737652e+02
*ELEMENT,TYPE=MASS,ELSET=M1297
21026,1297
*MASS,ELSET=M1297
9.26603436390e+02
*ELEMENT,TYPE=MASS,ELSET=M1298
21027,1298
*MASS,ELSET=M1298
9.25717851699e+02
*ELEMENT,TYPE=MASS,ELSET=M1299
21028,1299
*MASS,ELSET=M1299
9.44088018944e+02
*ELEMENT,TYPE=MASS,ELSET=M1300
21029,1300
*MASS,ELSET=M1300
3.12123206391e+03
*ELEMENT,TYPE=MASS,ELSET=M1301
21030,1301
*MASS,ELSET=M1301
9.01856534007e+02
*ELEMENT,TYPE=MASS,ELSET=M1302
21031,1302
*MASS,ELSET=M1302
9.20220682397e+02
*ELEMENT,TYPE=MASS,ELSET=M1303
21032,1303
*MASS,ELSET=M1303
9.19385558111e+02
*ELEMENT,TYPE=MASS,ELSET=M1304
21033,1304
*MASS,ELSET=M1304
9.37676338341e+02
*ELEMENT,TYPE=MASS,ELSET=M1305
21034,1305
*MASS,ELSET=M1305
2.76510711424e+03
*ELEMENT,TYPE=MASS,ELSET=M1306
21035,1306
*MASS,ELSET=M1306
8.96209183977e+02
*ELEMENT,TYPE=MASS,ELSET=M1307
21036,1307
*MASS,ELSET=M1307
9.14499866032e+02
*ELEMENT,TYPE=MASS,ELSET=M1308
21037,1308
*MASS,ELSET=M1308
9.13712384195e+02
*ELEMENT,TYPE=MASS,ELSET=M1309
21038,1309
*MASS,ELSET=M1309
9.31934577538e+02
*ELEMENT,TYPE=MASS,ELSET=M1310
21039,1310
*MASS,ELSET=M1310
2.75957068888e+03
*ELEMENT,TYPE=MASS,ELSET=M1311
21040,1311
*MASS,ELSET=M1311
8.90879862122e+02
*ELEMENT,TYPE=MASS,ELSET=M1312
21041,1312
*MASS,ELSET=M1312
9.09103644859e+02
*ELEMENT,TYPE=MASS,ELSET=M1313
21042,1313
*MASS,ELSET=M1313
9.08363604075e+02
*ELEMENT,TYPE=MASS,ELSET=M1314
21043,1314
*MASS,ELSET=M1314
9.26523761346e+02
*ELEMENT,TYPE=MASS,ELSET=M1315
21044,1315
*MASS,ELSET=M1315
3.10431959738e+03
*ELEMENT,TYPE=MASS,ELSET=M1316
21045,1316
*MASS,ELSET=M1316
8.85602304714e+02
*ELEMENT,TYPE=MASS,ELSET=M1317
21046,1317
*MASS,ELSET=M1317
9.03762643681e+02
*ELEMENT,TYPE=MASS,ELSET=M1318
21047,1318
*MASS,ELSET=M1318
9.03072448525e+02
*ELEMENT,TYPE=MASS,ELSET=M1319
21048,1319
*MASS,ELSET=M1319
9.21174276503e+02
*ELEMENT,TYPE=MASS,ELSET=M1320
21049,1320
*MASS,ELSET=M1320
2.74921230527e+03
*ELEMENT,TYPE=MASS,ELSET=M1321
21050,1321
*MASS,ELSET=M1321
8.80927112827e+02
*ELEMENT,TYPE=MASS,ELSET=M1322
21051,1322
*MASS,ELSET=M1322
8.99034096449e+02
*ELEMENT,TYPE=MASS,ELSET=M1323
21052,1323
*MASS,ELSET=M1323
8.98390965439e+02
*ELEMENT,TYPE=MASS,ELSET=M1324
21053,1324
*MASS,ELSET=M1324
9.16444271784e+02
*ELEMENT,TYPE=MASS,ELSET=M1325
21054,1325
*MASS,ELSET=M1325
2.74466808613e+03
*ELEMENT,TYPE=MASS,ELSET=M1326
21055,1326
*MASS,ELSET=M1326
8.76570526280e+02
*ELEMENT,TYPE=MASS,ELSET=M1327
21056,1327
*MASS,ELSET=M1327
8.94630769208e+02
*ELEMENT,TYPE=MASS,ELSET=M1328
21057,1328
*MASS,ELSET=M1328
8.94034536975e+02
*ELEMENT,TYPE=MASS,ELSET=M1329
21058,1329
*MASS,ELSET=M1329
9.12045923845e+02
*ELEMENT,TYPE=MASS,ELSET=M1330
21059,1330
*MASS,ELSET=M1330
3.09043492995e+03
*ELEMENT,TYPE=MASS,ELSET=M1331
21060,1331
*MASS,ELSET=M1331
8.72317537312e+02
*ELEMENT,TYPE=MASS,ELSET=M1332
21061,1332
*MASS,ELSET=M1332
8.90335634120e+02
*ELEMENT,TYPE=MASS,ELSET=M1333
21062,1333
*MASS,ELSET=M1333
8.89788742666e+02
*ELEMENT,TYPE=MASS,ELSET=M1334
21063,1334
*MASS,ELSET=M1334
9.07763060598e+02
*ELEMENT,TYPE=MASS,ELSET=M1335
21064,1335
*MASS,ELSET=M1335
2.73634853322e+03
*ELEMENT,TYPE=MASS,ELSET=M1336
21065,1336
*MASS,ELSET=M1336
8.68616500959e+02
*ELEMENT,TYPE=MASS,ELSET=M1337
21066,1337
*MASS,ELSET=M1337
8.86601503787e+02
*ELEMENT,TYPE=MASS,ELSET=M1338
21067,1338
*MASS,ELSET=M1338
8.86101208359e+02
*ELEMENT,TYPE=MASS,ELSET=M1339
21068,1339
*MASS,ELSET=M1339
9.04047231778e+02
*ELEMENT,TYPE=MASS,ELSET=M1340
21069,1340
*MASS,ELSET=M1340
2.69563667494e+03
*ELEMENT,TYPE=MASS,ELSET=M1341
21070,1341
*MASS,ELSET=M1341
7.54486279235e+02
*ELEMENT,TYPE=MASS,ELSET=M1342
21071,1342
*MASS,ELSET=M1342
7.36089866846e+02
*ELEMENT,TYPE=MASS,ELSET=M1343
21072,1343
*MASS,ELSET=M1343
7.35773191562e+02
*ELEMENT,TYPE=MASS,ELSET=M1344
21073,1344
*MASS,ELSET=M1344
7.35460298717e+02
*ELEMENT,TYPE=MASS,ELSET=M1345
21074,1345
*MASS,ELSET=M1345
6.98408184697e+02
*ELEMENT,TYPE=MASS,ELSET=M1346
21075,1346
*MASS,ELSET=M1346
3.68454157782e+02
*ELEMENT,TYPE=MASS,ELSET=M1347
21076,1347
*MASS,ELSET=M1347
7.38947619813e+01
*ELEMENT,TYPE=MASS,ELSET=M1348
21077,1348
*MASS,ELSET=M1348
3.70571126995e+02
*ELEMENT,TYPE=MASS,ELSET=M1349
21078,1349
*MASS,ELSET=M1349
7.05716405333e+02
*ELEMENT,TYPE=MASS,ELSET=M1350
21079,1350
*MASS,ELSET=M1350
7.42489605924e+02
*ELEMENT,TYPE=MASS,ELSET=M1351
21080,1351
*MASS,ELSET=M1351
7.42104052030e+02
*ELEMENT,TYPE=MASS,ELSET=M1352
21081,1352
*MASS,ELSET=M1352
7.42067037289e+02
*ELEMENT,TYPE=MASS,ELSET=M1353
21082,1353
*MASS,ELSET=M1353
2.66338220662e+03
*ELEMENT,TYPE=MASS,ELSET=M1354
21083,1354
*MASS,ELSET=M1354
8.50995650193e+02
*ELEMENT,TYPE=MASS,ELSET=M1355
21084,1355
*MASS,ELSET=M1355
8.13540480056e+02
*ELEMENT,TYPE=MASS,ELSET=M1356
21085,1356
*MASS,ELSET=M1356
8.13110145949e+02
*ELEMENT,TYPE=MASS,ELSET=M1357
21086,1357
*MASS,ELSET=M1357
8.49605063197e+02
*ELEMENT,TYPE=MASS,ELSET=M1358
21087,1358
*MASS,ELSET=M1358
2.73371054475e+03
*ELEMENT,TYPE=MASS,ELSET=M1359
21088,1359
*MASS,ELSET=M1359
8.47723149404e+02
*ELEMENT,TYPE=MASS,ELSET=M1360
21089,1360
*MASS,ELSET=M1360
8.10449692239e+02
*ELEMENT,TYPE=MASS,ELSET=M1361
21090,1361
*MASS,ELSET=M1361
8.10057054318e+02
*ELEMENT,TYPE=MASS,ELSET=M1362
21091,1362
*MASS,ELSET=M1362
8.46454374338e+02
*ELEMENT,TYPE=MASS,ELSET=M1363
21092,1363
*MASS,ELSET=M1363
3.08051650183e+03
*ELEMENT,TYPE=MASS,ELSET=M1364
21093,1364
*MASS,ELSET=M1364
8.44577131695e+02
*ELEMENT,TYPE=MASS,ELSET=M1365
21094,1365
*MASS,ELSET=M1365
8.07482071417e+02
*ELEMENT,TYPE=MASS,ELSET=M1366
21095,1366
*MASS,ELSET=M1366
8.07129218722e+02
*ELEMENT,TYPE=MASS,ELSET=M1367
21096,1367
*MASS,ELSET=M1367
8.43436919118e+02
*ELEMENT,TYPE=MASS,ELSET=M1368
21097,1368
*MASS,ELSET=M1368
2.72745595516e+03
*ELEMENT,TYPE=MASS,ELSET=M1369
21098,1369
*MASS,ELSET=M1369
8.41903291699e+02
*ELEMENT,TYPE=MASS,ELSET=M1370
21099,1370
*MASS,ELSET=M1370
8.04963721816e+02
*ELEMENT,TYPE=MASS,ELSET=M1371
21100,1371
*MASS,ELSET=M1371
8.04648383562e+02
*ELEMENT,TYPE=MASS,ELSET=M1372
21101,1372
*MASS,ELSET=M1372
8.40884303745e+02
*ELEMENT,TYPE=MASS,ELSET=M1373
21102,1373
*MASS,ELSET=M1373
2.72488103220e+03
*ELEMENT,TYPE=MASS,ELSET=M1374
21103,1374
*MASS,ELSET=M1374
8.39520622243e+02
*ELEMENT,TYPE=MASS,ELSET=M1375
21104,1375
*MASS,ELSET=M1375
8.02723803086e+02
*ELEMENT,TYPE=MASS,ELSET=M1376
21105,1376
*MASS,ELSET=M1376
8.02445904442e+02
*ELEMENT,TYPE=MASS,ELSET=M1377
21106,1377
*MASS,ELSET=M1377
8.38622617108e+02
*ELEMENT,TYPE=MASS,ELSET=M1378
21107,1378
*MASS,ELSET=M1378
3.07264200276e+03
*ELEMENT,TYPE=MASS,ELSET=M1379
21108,1379
*MASS,ELSET=M1379
8.37316050776e+02
*ELEMENT,TYPE=MASS,ELSET=M1380
21109,1380
*MASS,ELSET=M1380
8.00656451000e+02
*ELEMENT,TYPE=MASS,ELSET=M1381
21110,1381
*MASS,ELSET=M1381
8.00418108937e+02
*ELEMENT,TYPE=MASS,ELSET=M1382
21111,1382
*MASS,ELSET=M1382
8.36545869266e+02
*ELEMENT,TYPE=MASS,ELSET=M1383
21112,1383
*MASS,ELSET=M1383
2.72053714810e+03
*ELEMENT,TYPE=MASS,ELSET=M1384
21113,1384
*MASS,ELSET=M1384
8.35533252213e+02
*ELEMENT,TYPE=MASS,ELSET=M1385
21114,1385
*MASS,ELSET=M1385
7.98990186002e+02
*ELEMENT,TYPE=MASS,ELSET=M1386
21115,1386
*MASS,ELSET=M1386
7.98789157304e+02
*ELEMENT,TYPE=MASS,ELSET=M1387
21116,1387
*MASS,ELSET=M1387
8.34883645576e+02
*ELEMENT,TYPE=MASS,ELSET=M1388
21117,1388
*MASS,ELSET=M1388
2.68229202312e+03
*ELEMENT,TYPE=MASS,ELSET=M1389
21118,1389
*MASS,ELSET=M1389
8.33704909875e+02
*ELEMENT,TYPE=MASS,ELSET=M1390
21119,1390
*MASS,ELSET=M1390
8.70112433701e+02
*ELEMENT,TYPE=MASS,ELSET=M1391
21120,1391
*MASS,ELSET=M1391
8.33678818346e+02
*ELEMENT,TYPE=MASS,ELSET=M1392
21121,1392
*MASS,ELSET=M1392
4.33534061443e+02
*ELEMENT,TYPE=MASS,ELSET=M1393
21122,1393
*MASS,ELSET=M1393
7.37811145579e+01
*ELEMENT,TYPE=MASS,ELSET=M1394
21123,1394
*MASS,ELSET=M1394
1.89955192933e+03
*ELEMENT,TYPE=MASS,ELSET=M1395
21124,1395
*MASS,ELSET=M1395
1.86063286342e+03
*BOUNDARY
1,1,1
1,2,2
1,3,3
2,2,2
3,2,2
3,3,3
4,2,2
5,2,2
6,2,2
6,3,3
7,2,2
8,2,2
9,2,2
10,2,2
11,2,2
12,2,2
13,2,2
14,2,2
15,2,2
16,2,2
17,2,2
18,2,2
19,2,2
20,2,2
21,2,2
22,2,2
23,2,2
24,2,2
25,2,2
26,2,2
27,2,2
28,2,2
29,2,2
30,2,2
31,2,2
32,2,2
33,2,2
34,2,2
35,2,2
36,2,2
37,2,2
38,2,2
39,2,2
40,2,2
41,2,2
42,2,2
43,2,2
44,2,2
45,2,2
46,2,2
47,2,2
48,2,2
49,2,2
50,2,2
51,2,2
52,2,2
53,2,2
54,2,2
55,2,2
56,2,2
57,2,2
58,2,2
59,2,2
60,2,2
61,2,2
62,2,2
63,2,2
64,2,2
65,2,2
66,2,2
67,2,2
68,2,2
69,2,2
70,2,2
71,2,2
72,2,2
73,2,2
74,2,2
75,2,2
76,2,2
77,2,2
78,2,2
79,2,2
80,2,2
81,2,2
82,2,2
83,2,2
84,2,2
85,2,2
86,2,2
87,2,2
88,2,2
89,2,2
90,2,2
91,2,2
92,2,2
93,2,2
94,2,2
95,2,2
96,2,2
97,2,2
98,2,2
99,2,2
100,2,2
101,2,2
102,2,2
103,2,2
104,2,2
105,2,2
106,2,2
107,2,2
108,2,2
109,2,2
110,2,2
111,2,2
112,2,2
113,2,2
114,2,2
115,2,2
116,2,2
117,2,2
118,2,2
119,2,2
120,2,2
121,2,2
122,2,2
123,2,2
124,2,2
125,2,2
126,2,2
127,2,2
128,2,2
129,2,2
130,2,2
131,2,2
132,2,2
133,2,2
134,2,2
135,2,2
136,2,2
137,2,2
138,2,2
139,2,2
140,2,2
141,2,2
142,2,2
143,2,2
144,2,2
145,2,2
146,2,2
147,2,2
148,2,2
149,2,2
150,2,2
151,2,2
152,2,2
153,2,2
154,1,1
154,2,2
154,3,3
155,2,2
156,2,2
157,2,2
157,3,3
158,2,2
159,2,2
160,2,2
161,2,2
162,2,2
163,2,2
164,2,2
165,2,2
166,2,2
167,2,2
168,2,2
169,2,2
170,2,2
171,2,2
172,2,2
173,2,2
174,2,2
175,2,2
176,2,2
177,2,2
178,2,2
179,2,2
180,2,2
181,2,2
182,2,2
183,2,2
184,2,2
185,2,2
186,2,2
187,2,2
188,2,2
189,2,2
190,2,2
191,2,2
192,2,2
193,2,2
194,2,2
195,2,2
196,2,2
197,2,2
198,2,2
199,2,2
200,2,2
201,2,2
202,2,2
203,2,2
204,2,2
205,2,2
206,2,2
207,2,2
208,2,2
209,2,2
210,2,2
211,2,2
212,2,2
213,2,2
214,2,2
215,2,2
216,2,2
217,2,2
218,2,2
219,2,2
220,2,2
221,2,2
222,2,2
223,2,2
224,2,2
225,2,2
226,2,2
227,2,2
228,2,2
229,2,2
230,2,2
231,2,2
232,2,2
233,2,2
234,2,2
235,2,2
236,2,2
237,2,2
238,2,2
239,2,2
240,2,2
241,2,2
242,2,2
243,2,2
244,2,2
245,2,2
246,2,2
247,2,2
248,2,2
249,2,2
250,2,2
251,2,2
252,2,2
253,2,2
254,2,2
255,2,2
256,2,2
257,2,2
258,2,2
259,2,2
260,2,2
261,2,2
262,2,2
263,2,2
264,2,2
265,2,2
266,2,2
267,2,2
268,2,2
269,2,2
270,2,2
271,2,2
272,2,2
273,2,2
274,2,2
275,2,2
276,2,2
277,2,2
278,2,2
279,2,2
280,2,2
281,2,2
282,2,2
283,2,2
284,2,2
285,2,2
286,2,2
287,2,2
288,2,2
289,2,2
290,2,2
291,2,2
292,2,2
293,2,2
294,2,2
295,2,2
296,2,2
297,2,2
298,2,2
299,2,2
300,2,2
301,2,2
302,2,2
303,2,2
304,2,2
305,2,2
306,2,2
307,2,2
308,2,2
309,2,2
310,2,2
311,2,2
312,2,2
313,2,2
314,2,2
315,2,2
316,2,2
317,2,2
318,2,2
319,2,2
320,2,2
321,2,2
322,2,2
323,2,2
324,2,2
325,2,2
326,2,2
327,2,2
328,2,2
329,2,2
330,2,2
331,2,2
332,2,2
333,2,2
334,2,2
335,2,2
336,2,2
337,2,2
338,2,2
339,2,2
340,2,2
341,2,2
342,2,2
343,2,2
344,2,2
345,2,2
346,2,2
347,2,2
348,2,2
349,2,2
350,2,2
351,2,2
352,2,2
353,2,2
354,2,2
355,2,2
356,2,2
357,2,2
358,2,2
359,2,2
360,2,2
361,2,2
362,2,2
363,2,2
364,2,2
365,2,2
366,2,2
367,2,2
368,2,2
369,2,2
370,2,2
371,2,2
372,2,2
373,2,2
374,2,2
375,2,2
376,2,2
377,2,2
378,2,2
379,2,2
380,2,2
381,2,2
382,2,2
383,2,2
384,2,2
385,2,2
386,2,2
387,2,2
388,2,2
389,2,2
390,2,2
391,2,2
392,2,2
393,2,2
394,2,2
395,2,2
396,2,2
397,2,2
398,2,2
399,2,2
400,2,2
401,2,2
402,2,2
403,2,2
404,2,2
405,2,2
406,2,2
407,2,2
408,2,2
409,2,2
410,2,2
411,2,2
412,2,2
413,2,2
414,2,2
415,2,2
416,2,2
417,2,2
418,2,2
419,2,2
420,2,2
421,2,2
422,2,2
423,2,2
424,2,2
425,2,2
426,2,2
427,2,2
428,2,2
429,2,2
430,2,2
431,2,2
432,2,2
433,2,2
434,2,2
435,2,2
436,2,2
437,2,2
438,2,2
439,2,2
440,2,2
441,2,2
442,2,2
443,2,2
444,2,2
445,2,2
446,2,2
447,2,2
447,3,3
448,2,2
449,2,2
450,1,1
450,2,2
450,3,3
451,2,2
452,2,2
453,2,2
454,2,2
455,2,2
456,2,2
457,2,2
458,2,2
459,2,2
460,2,2
461,2,2
462,2,2
463,2,2
464,2,2
465,2,2
466,2,2
467,2,2
468,2,2
469,2,2
470,2,2
471,2,2
472,2,2
473,2,2
474,2,2
475,2,2
476,2,2
477,2,2
478,2,2
479,2,2
480,2,2
481,2,2
482,2,2
483,2,2
484,2,2
485,2,2
486,2,2
487,2,2
488,2,2
489,2,2
490,2,2
491,2,2
492,2,2
493,2,2
494,2,2
495,2,2
496,2,2
497,2,2
498,2,2
499,2,2
500,2,2
501,2,2
502,2,2
503,2,2
504,2,2
505,2,2
506,2,2
507,2,2
508,2,2
509,2,2
510,2,2
511,2,2
512,2,2
513,2,2
514,2,2
515,2,2
516,2,2
517,2,2
518,2,2
519,2,2
520,2,2
521,2,2
522,2,2
523,2,2
524,2,2
525,2,2
526,2,2
527,2,2
528,2,2
529,2,2
530,2,2
531,2,2
532,2,2
533,2,2
534,2,2
535,2,2
536,2,2
537,2,2
538,2,2
539,2,2
540,2,2
541,2,2
542,2,2
543,2,2
544,2,2
545,2,2
546,2,2
547,2,2
548,2,2
549,2,2
550,2,2
551,2,2
552,2,2
553,2,2
554,2,2
555,2,2
556,2,2
557,2,2
558,2,2
559,2,2
560,2,2
561,2,2
562,2,2
563,2,2
564,2,2
565,2,2
566,2,2
567,2,2
568,2,2
569,2,2
570,2,2
571,2,2
572,2,2
573,2,2
574,2,2
575,2,2
576,2,2
577,2,2
578,2,2
579,2,2
580,2,2
581,2,2
582,2,2
583,2,2
584,2,2
585,2,2
586,2,2
587,2,2
588,2,2
589,2,2
590,2,2
591,2,2
592,2,2
593,2,2
594,2,2
595,2,2
596,2,2
597,2,2
598,2,2
599,2,2
600,2,2
601,2,2
602,2,2
603,2,2
604,2,2
605,2,2
606,2,2
607,2,2
608,2,2
608,3,3
609,2,2
610,2,2
611,2,2
612,2,2
613,2,2
614,2,2
615,2,2
616,2,2
617,2,2
618,2,2
619,2,2
620,2,2
621,2,2
622,2,2
623,2,2
624,2,2
625,2,2
626,2,2
627,2,2
628,2,2
629,2,2
630,2,2
631,2,2
632,2,2
633,2,2
634,2,2
635,2,2
636,2,2
637,2,2
638,2,2
639,2,2
640,2,2
641,2,2
642,2,2
643,2,2
644,2,2
645,2,2
646,2,2
647,2,2
648,2,2
649,2,2
650,2,2
651,2,2
652,2,2
653,2,2
654,2,2
655,2,2
656,2,2
657,2,2
658,2,2
659,2,2
660,2,2
661,2,2
662,2,2
663,2,2
664,2,2
665,2,2
666,2,2
667,2,2
668,2,2
669,2,2
670,2,2
671,2,2
672,2,2
673,2,2
674,2,2
675,2,2
676,2,2
677,2,2
678,2,2
679,2,2
680,2,2
681,2,2
682,2,2
683,2,2
684,2,2
685,2,2
686,2,2
687,2,2
688,2,2
689,2,2
690,2,2
691,2,2
692,2,2
693,2,2
694,2,2
695,2,2
696,2,2
697,2,2
698,2,2
699,2,2
700,2,2
701,2,2
702,2,2
703,2,2
704,2,2
705,2,2
706,2,2
707,2,2
708,2,2
709,2,2
710,2,2
711,2,2
712,2,2
713,2,2
714,2,2
715,2,2
716,2,2
717,2,2
718,2,2
719,2,2
720,2,2
721,2,2
722,2,2
723,2,2
723,3,3
724,2,2
725,2,2
726,2,2
726,3,3
727,2,2
728,1,1
728,2,2
728,3,3
729,1,1
729,2,2
729,3,3
730,1,1
730,2,2
730,3,3
1001,1,1
1001,2,2
1001,3,3
1002,2,2
1003,2,2
1003,3,3
1004,2,2
1005,2,2
1006,2,2
1007,2,2
1008,2,2
1009,2,2
1010,2,2
1011,2,2
1012,2,2
1013,2,2
1014,2,2
1015,2,2
1016,2,2
1017,2,2
1018,2,2
1019,2,2
1020,2,2
1021,2,2
1022,2,2
1023,2,2
1024,2,2
1025,2,2
1026,2,2
1027,2,2
1028,2,2
1029,2,2
1030,2,2
1031,2,2
1032,2,2
1033,2,2
1034,2,2
1035,2,2
1036,2,2
1037,2,2
1038,2,2
1039,2,2
1040,2,2
1041,2,2
1042,2,2
1043,2,2
1044,2,2
1045,2,2
1046,2,2
1047,2,2
1048,2,2
1049,2,2
1050,2,2
1051,2,2
1052,2,2
1053,2,2
1054,2,2
1055,2,2
1056,2,2
1057,2,2
1058,2,2
1059,2,2
1060,2,2
1061,2,2
1062,2,2
1063,2,2
1063,3,3
1064,2,2
1065,2,2
1066,1,1
1066,2,2
1066,3,3
1067,2,2
1068,2,2
1069,2,2
1070,2,2
1071,2,2
1072,2,2
1073,2,2
1074,2,2
1075,2,2
1076,2,2
1077,2,2
1078,2,2
1079,2,2
1080,2,2
1081,2,2
1082,2,2
1083,2,2
1084,2,2
1085,2,2
1086,2,2
1087,2,2
1088,2,2
1089,2,2
1090,2,2
1091,2,2
1092,2,2
1093,2,2
1094,2,2
1095,2,2
1096,2,2
1097,2,2
1098,2,2
1099,2,2
1100,2,2
1101,2,2
1102,2,2
1103,2,2
1104,2,2
1105,2,2
1106,2,2
1107,2,2
1108,2,2
1109,2,2
1110,2,2
1111,2,2
1112,2,2
1113,2,2
1114,2,2
1115,2,2
1116,2,2
1117,2,2
1118,2,2
1119,2,2
1120,2,2
1121,2,2
1122,2,2
1123,2,2
1124,2,2
1125,2,2
1126,2,2
1127,2,2
1128,2,2
1129,2,2
1130,2,2
1131,2,2
1132,2,2
1133,2,2
1134,2,2
1135,2,2
1136,2,2
1137,2,2
1138,2,2
1139,2,2
1140,2,2
1141,2,2
1142,2,2
1143,2,2
1144,2,2
1145,2,2
1146,2,2
1147,2,2
1148,2,2
1149,2,2
1150,2,2
1151,2,2
1152,2,2
1153,2,2
1154,2,2
1155,2,2
1156,2,2
1157,2,2
1158,2,2
1159,2,2
1160,2,2
1161,2,2
1162,2,2
1163,2,2
1164,2,2
1165,2,2
1166,2,2
1167,2,2
1168,2,2
1169,2,2
1170,2,2
1171,2,2
1172,2,2
1173,2,2
1174,2,2
1175,2,2
1176,2,2
1177,2,2
1178,2,2
1179,2,2
1180,2,2
1181,2,2
1182,2,2
1183,2,2
1184,2,2
1185,2,2
1186,2,2
1187,2,2
1188,2,2
1189,2,2
1190,2,2
1191,2,2
1192,2,2
1193,2,2
1194,2,2
1195,2,2
1196,2,2
1197,2,2
1198,2,2
1199,2,2
1200,2,2
1201,2,2
1202,2,2
1203,2,2
1204,2,2
1205,2,2
1206,2,2
1207,2,2
1208,2,2
1209,2,2
1210,2,2
1211,2,2
1212,2,2
1213,2,2
1214,2,2
1215,2,2
1216,2,2
1217,2,2
1218,2,2
1219,2,2
1220,2,2
1221,2,2
1222,2,2
1223,2,2
1224,2,2
1225,2,2
1226,2,2
1227,2,2
1228,2,2
1229,2,2
1230,2,2
1231,2,2
1232,2,2
1233,2,2
1234,2,2
1235,2,2
1236,2,2
1237,2,2
1238,2,2
1239,2,2
1240,2,2
1241,2,2
1242,2,2
1243,2,2
1244,2,2
1245,2,2
1246,2,2
1247,2,2
1248,2,2
1249,2,2
1250,2,2
1251,2,2
1252,2,2
1253,2,2
1254,2,2
1255,2,2
1256,2,2
1257,2,2
1258,2,2
1259,2,2
1260,2,2
1261,2,2
1262,2,2
1263,2,2
1264,2,2
1265,2,2
1266,2,2
1267,2,2
1268,2,2
1269,2,2
1270,2,2
1271,2,2
1272,2,2
1273,2,2
1274,2,2
1275,2,2
1276,2,2
1277,2,2
1278,2,2
1279,2,2
1280,1,1
1280,2,2
1280,3,3
1281,2,2
1282,2,2
1283,2,2
1283,3,3
1284,2,2
1285,2,2
1286,2,2
1287,2,2
1288,2,2
1289,2,2
1290,2,2
1291,2,2
1292,2,2
1293,2,2
1294,2,2
1295,2,2
1296,2,2
1297,2,2
1298,2,2
1299,2,2
1300,2,2
1301,2,2
1302,2,2
1303,2,2
1304,2,2
1305,2,2
1306,2,2
1307,2,2
1308,2,2
1309,2,2
1310,2,2
1311,2,2
1312,2,2
1313,2,2
1314,2,2
1315,2,2
1316,2,2
1317,2,2
1318,2,2
1319,2,2
1320,2,2
1321,2,2
1322,2,2
1323,2,2
1324,2,2
1325,2,2
1326,2,2
1327,2,2
1328,2,2
1329,2,2
1330,2,2
1331,2,2
1332,2,2
1333,2,2
1334,2,2
1335,2,2
1336,2,2
1337,2,2
1338,2,2
1339,2,2
1340,2,2
1341,2,2
1342,2,2
1343,2,2
1344,2,2
1345,2,2
1346,2,2
1347,2,2
1347,3,3
1348,2,2
1349,2,2
1350,2,2
1351,2,2
1352,2,2
1353,2,2
1354,2,2
1355,2,2
1356,2,2
1357,2,2
1358,2,2
1359,2,2
1360,2,2
1361,2,2
1362,2,2
1363,2,2
1364,2,2
1365,2,2
1366,2,2
1367,2,2
1368,2,2
1369,2,2
1370,2,2
1371,2,2
1372,2,2
1373,2,2
1374,2,2
1375,2,2
1376,2,2
1377,2,2
1378,2,2
1379,2,2
1380,2,2
1381,2,2
1382,2,2
1383,2,2
1384,2,2
1385,2,2
1386,2,2
1387,2,2
1388,2,2
1389,2,2
1390,2,2
1391,2,2
1392,2,2
1393,2,2
1393,3,3
1394,2,2
1395,1,1
1395,2,2
1395,3,3
*STEP,NLGEOM,INC=100
*STATIC
0.1,1.,1.e-8,0.2
*CLOAD
1,3,-4.75379414985e+04
2,3,-4.96316877302e+04
3,3,-3.84733589340e+03
4,3,-6.82335866751e+03
5,3,-6.57089323562e+03
6,3,-3.11131377740e+03
7,3,-8.85209460787e+03
8,3,-7.72151469105e+04
9,3,-1.85021580699e+04
10,3,-1.43931223093e+04
11,3,-9.92909483743e+03
12,3,-1.44042334638e+04
13,3,-1.99832335568e+04
14,3,-1.44156142414e+04
15,3,-9.94415608907e+03
16,3,-1.76077547078e+04
17,3,-2.00152881092e+04
18,3,-1.44397619655e+04
19,3,-9.96032491555e+03
20,3,-1.44512831809e+04
21,3,-2.00462434516e+04
22,3,-1.44630799031e+04
23,3,-9.97593702287e+03
24,3,-1.44748010551e+04
25,3,-2.00777356046e+04
26,3,-1.44868005642e+04
27,3,-9.99181770307e+03
28,3,-1.01045456456e+04
29,3,-1.19675511344e+04
30,3,-1.57180957583e+04
31,3,-1.45122383200e+04
32,3,-1.00088468235e+04
33,3,-1.45243708260e+04
34,3,-2.01441062785e+04
35,3,-1.45367875167e+04
36,3,-1.00252800475e+04
37,3,-1.45491206343e+04
38,3,-2.01772413904e+04
39,3,-1.45617407608e+04
40,3,-1.00419827284e+04
41,3,-1.45742747202e+04
42,3,-8.78204977649e+04
43,3,-1.46165097487e+04
44,3,-1.00786394950e+04
45,3,-1.46294743736e+04
46,3,-2.02848056881e+04
47,3,-1.46427348123e+04
48,3,-1.00961903443e+04
49,3,-1.46559010278e+04
50,3,-2.03201771667e+04
51,3,-1.46693658409e+04
52,3,-1.01140119292e+04
53,3,-1.46827338932e+04
54,3,-1.58973632024e+04
55,3,-1.20966230087e+04
56,3,-1.02400123784e+04
57,3,-1.01331103688e+04
58,3,-1.47114536093e+04
59,3,-2.03945043380e+04
60,3,-1.47253384199e+04
61,3,-1.01514879346e+04
62,3,-1.47391216363e+04
63,3,-2.04315320832e+04
64,3,-1.47532115493e+04
65,3,-1.01701372183e+04
66,3,-1.47671973802e+04
67,3,-2.04691036258e+04
68,3,-1.79619970744e+04
69,3,-1.01900686288e+04
70,3,-1.47972018602e+04
71,3,-2.05092542732e+04
72,3,-1.48117136400e+04
73,3,-1.02092768305e+04
74,3,-1.48261162702e+04
75,3,-2.05479443975e+04
76,3,-1.48408339351e+04
77,3,-1.02287578183e+04
78,3,-1.48554399996e+04
79,3,-2.05871804593e+04
80,3,-1.48703638133e+04
81,3,-7.78497290048e+04
82,3,-1.49189006541e+04
83,3,-2.06720870220e+04
84,3,-1.49342619731e+04
85,3,-1.02912541018e+04
86,3,-1.49495041484e+04
87,3,-2.07130300045e+04
88,3,-1.49650724680e+04
89,3,-1.03118622783e+04
90,3,-1.49805192502e+04
91,3,-2.07545219829e+04
92,3,-1.49962948525e+04
93,3,-1.03327451478e+04
94,3,-1.81930489962e+04
95,3,-2.07987735134e+04
96,3,-1.50295924550e+04
97,3,-1.03550151553e+04
98,3,-1.50454600637e+04
99,3,-2.08413945723e+04
100,3,-1.50616619502e+04
101,3,-1.03764629798e+04
102,3,-1.50777350823e+04
103,3,-2.08845670180e+04
104,3,-1.50941451357e+04
105,3,-1.03981867055e+04
106,3,-1.05261591533e+04
107,3,-1.23759850921e+04
108,3,-1.63188717425e+04
109,3,-1.51287597213e+04
110,3,-1.04213350231e+04
111,3,-1.51452555303e+04
112,3,-2.09748802819e+04
113,3,-1.51620936583e+04
114,3,-1.04436261428e+04
115,3,-1.51787959476e+04
116,3,-2.10197405262e+04
117,3,-1.51958431712e+04
118,3,-1.04661944291e+04
119,3,-1.52127522640e+04
120,3,-8.86803479722e+04
121,3,-1.52678348153e+04
122,3,-1.05143328512e+04
123,3,-1.52851778498e+04
124,3,-2.11620164256e+04
125,3,-1.53028738441e+04
126,3,-1.05377611807e+04
127,3,-1.53204247113e+04
128,3,-2.12091527677e+04
129,3,-1.53383311112e+04
130,3,-1.05614684577e+04
131,3,-1.53560901507e+04
132,3,-1.65867219662e+04
133,3,-1.25481177811e+04
134,3,-1.06780669979e+04
135,3,-1.05866859606e+04
136,3,-1.53940264351e+04
137,3,-2.13075772869e+04
138,3,-1.54123654170e+04
139,3,-1.06109667742e+04
140,3,-1.54305525093e+04
141,3,-2.13564199017e+04
142,3,-1.54491029225e+04
143,3,-1.06355279292e+04
144,3,-1.54674992614e+04
145,3,-2.14058236397e+04
146,3,-1.86668933367e+04
147,3,-1.06616348640e+04
148,3,-1.55067701777e+04
149,3,-2.14583336631e+04
150,3,-2.02649611344e+04
151,3,-8.53856208344e+04
152,3,-1.58569506452e+04
153,3,-1.00877680964e+04
154,3,-4.42591030081e+03
155,3,-2.02465347733e+04
156,3,-2.02990837221e+04
157,3,-4.41758049199e+03
158,3,-8.43916547258e+03
159,3,-1.47427578927e+04
160,3,-1.03290732786e+05
161,3,-2.72981944294e+04
162,3,-2.92025596662e+04
163,3,-2.91772738617e+04
164,3,-2.91521728127e+04
165,3,-2.02669066726e+04
166,3,-1.64715362399e+04
167,3,-2.46682212382e+04
168,3,-2.90752973326e+04
169,3,-2.90509543447e+04
170,3,-2.90267955279e+04
171,3,-2.90028207689e+04
172,3,-2.45740355156e+04
173,3,-1.63981593908e+04
174,3,-2.01401061496e+04
175,3,-2.89294295759e+04
176,3,-2.89062101782e+04
177,3,-2.88831742824e+04
178,3,-2.88603217828e+04
179,3,-2.88376525726e+04
180,3,-9.63791429564e+04
181,3,-2.87410318668e+04
182,3,-2.87193426829e+04
183,3,-2.86978361402e+04
184,3,-2.86765121413e+04
185,3,-2.86553705898e+04
186,3,-1.99509495071e+04
187,3,-1.62262207598e+04
188,3,-2.42481921950e+04
189,3,-2.85907547579e+04
190,3,-2.85703623266e+04
191,3,-2.85501518575e+04
192,3,-2.85301232574e+04
193,3,-2.41962948616e+04
194,3,-1.61648361378e+04
195,3,-1.98179400398e+04
196,3,-2.84689569044e+04
197,3,-2.84496752033e+04
198,3,-2.84305749137e+04
199,3,-2.84116559498e+04
200,3,-2.83929182264e+04
201,3,-9.59426385656e+04
202,3,-2.83127563650e+04
203,3,-2.82949945451e+04
204,3,-2.82774134378e+04
205,3,-2.82600129638e+04
206,3,-2.82427930440e+04
207,3,-1.96774479235e+04
208,3,-1.60230080443e+04
209,3,-2.39119867294e+04
210,3,-2.81903409143e+04
211,3,-2.81738628277e+04
212,3,-2.81575649083e+04
213,3,-2.81414470835e+04
214,3,-2.38749333438e+04
215,3,-1.59734984714e+04
216,3,-1.95653568682e+04
217,3,-2.80924164800e+04
218,3,-2.80770387251e+04
219,3,-2.80618407043e+04
220,3,-2.80468223494e+04
221,3,-2.80319835936e+04
222,3,-9.55900486719e+04
223,3,-2.79685104257e+04
224,3,-2.79546444229e+04
225,3,-2.79409576087e+04
226,3,-2.79274499227e+04
227,3,-2.79141213054e+04
228,3,-1.94599151759e+04
229,3,-1.58617301712e+04
230,3,-2.36456149908e+04
231,3,-2.78737573025e+04
232,3,-2.78611648308e+04
233,3,-2.78487511342e+04
234,3,-2.78365161579e+04
235,3,-2.36233831416e+04
236,3,-1.58240148738e+04
237,3,-1.93685268579e+04
238,3,-2.77995522177e+04
239,3,-2.77880520672e+04
240,3,-2.77767303698e+04
241,3,-2.77655870753e+04
242,3,-2.77546221348e+04
243,3,-9.53211283413e+04
244,3,-2.77080306819e+04
245,3,-2.76980362226e+04
246,3,-2.76882198216e+04
247,3,-2.76785814358e+04
248,3,-2.34935059267e+04
249,3,-1.57470429122e+04
250,3,-1.92675366783e+04
251,3,-2.76496950798e+04
252,3,-2.76407888571e+04
253,3,-2.76320604427e+04
254,3,-2.76235097987e+04
255,3,-1.92681765805e+04
256,3,-1.57201855175e+04
257,3,-2.34126299300e+04
258,3,-2.75980089741e+04
259,3,-2.75901895740e+04
260,3,-2.75825477623e+04
261,3,-2.48059308719e+04
262,3,-8.01087928685e+04
263,3,-1.78058673439e+04
264,3,-2.75439475157e+04
265,3,-2.75374523350e+04
266,3,-2.75311345143e+04
267,3,-2.75249940264e+04
268,3,-2.05916866235e+04
269,3,-1.56728684925e+04
270,3,-2.19470394507e+04
271,3,-2.75069973199e+04
272,3,-2.75015864579e+04
273,3,-2.74963528010e+04
274,3,-2.74912963269e+04
275,3,-1.64087403474e+04
276,3,-1.56567703522e+04
277,3,-2.60818781299e+04
278,3,-2.74766759024e+04
279,3,-2.74723485089e+04
280,3,-2.74681981948e+04
281,3,-2.74642249422e+04
282,3,-1.77778979510e+04
283,3,-8.00510431609e+04
284,3,-2.46678269023e+04
285,3,-2.74456225828e+04
286,3,-2.74427946078e+04
287,3,-2.74401435853e+04
288,3,-2.60657890087e+04
289,3,-1.56332250531e+04
290,3,-1.63538784971e+04
291,3,-2.74330170007e+04
292,3,-2.74310942578e+04
293,3,-2.74293484171e+04
294,3,-2.74277794711e+04
295,3,-2.19058271676e+04
296,3,-1.56278403022e+04
297,3,-2.04977773717e+04
298,3,-2.74240246161e+04
299,3,-2.74231837687e+04
300,3,-2.74225197896e+04
301,3,-2.74220389746e+04
302,3,-9.50118404374e+04
303,3,-2.74220250108e+04
304,3,-2.74224997625e+04
305,3,-2.74231575539e+04
306,3,-2.74239922136e+04
307,3,-2.32874419285e+04
308,3,-1.56278032970e+04
309,3,-1.91160835605e+04
310,3,-2.74277277829e+04
311,3,-2.74292905403e+04
312,3,-2.74310301920e+04
313,3,-2.74329467458e+04
314,3,-1.91446448568e+04
315,3,-1.56331575972e+04
316,3,-2.32748752916e+04
317,3,-2.74400540364e+04
318,3,-2.74426988681e+04
319,3,-2.74455206517e+04
320,3,-2.46912677958e+04
321,3,-8.00509778164e+04
322,3,-1.77542728634e+04
323,3,-2.74640891733e+04
324,3,-2.74680562331e+04
325,3,-2.74722003538e+04
326,3,-2.74765215532e+04
327,3,-2.05610681075e+04
328,3,-1.56568136129e+04
329,3,-2.19294296526e+04
330,3,-2.74911227200e+04
331,3,-2.74961729989e+04
332,3,-2.75014004597e+04
333,3,-2.75068051250e+04
334,3,-1.64195126708e+04
335,3,-1.56729095963e+04
336,3,-2.61190526890e+04
337,3,-2.75247825846e+04
338,3,-2.75309168742e+04
339,3,-2.75372284955e+04
340,3,-2.75437174759e+04
341,3,-1.78315806452e+04
342,3,-8.01086494767e+04
343,3,-2.47798272780e+04
344,3,-2.75822839992e+04
345,3,-2.75899196073e+04
346,3,-2.75977328026e+04
347,3,-2.62251805673e+04
348,3,-1.57199350454e+04
349,3,-1.64550896037e+04
350,3,-2.76232142330e+04
351,3,-2.76317586660e+04
352,3,-2.76404808680e+04
353,3,-2.76493808772e+04
354,3,-2.20858099565e+04
355,3,-1.57467611822e+04
356,3,-2.06746269990e+04
357,3,-2.76782477967e+04
358,3,-2.76878799617e+04
359,3,-2.76976901404e+04
360,3,-2.77076783757e+04
361,3,-9.53207623655e+04
362,3,-2.77542424887e+04
363,3,-2.77652012024e+04
364,3,-2.77763382684e+04
365,3,-2.77876537356e+04
366,3,-2.77991476540e+04
367,3,-1.93943822727e+04
368,3,-1.58238062863e+04
369,3,-2.35969048754e+04
370,3,-2.78360921912e+04
371,3,-2.78483209286e+04
372,3,-2.78607283841e+04
373,3,-2.78733146125e+04
374,3,-2.36714518619e+04
375,3,-1.58615024876e+04
376,3,-1.94333982160e+04
377,3,-2.79136591821e+04
378,3,-2.79269815489e+04
379,3,-2.79404829819e+04
380,3,-2.79541635407e+04
381,3,-2.79680232862e+04
382,3,-9.55895480012e+04
383,3,-2.80314693910e+04
384,3,-2.80463018851e+04
385,3,-2.80613139761e+04
386,3,-2.80765057305e+04
387,3,-2.80918772167e+04
388,3,-1.95914304170e+04
389,3,-1.59732220707e+04
390,3,-2.38480343828e+04
391,3,-2.81408883204e+04
392,3,-2.81569998671e+04
393,3,-2.81732915056e+04
394,3,-2.81897633090e+04
395,3,-2.39380448416e+04
396,3,-1.60227124382e+04
397,3,-1.96505068316e+04
398,3,-2.82421958977e+04
399,3,-2.82594095231e+04
400,3,-2.82768037011e+04
401,3,-2.82943785097e+04
402,3,-2.83121340274e+04
403,3,-9.59420028681e+04
404,3,-2.83922691675e+04
405,3,-2.84110005833e+04
406,3,-2.84299132361e+04
407,3,-2.84490072116e+04
408,3,-2.84682825965e+04
409,3,-1.98443179936e+04
410,3,-1.61644917556e+04
411,3,-2.41688884062e+04
412,3,-2.85294293204e+04
413,3,-2.85494515906e+04
414,3,-2.85696557270e+04
415,3,-2.85900418220e+04
416,3,-2.42745578781e+04
417,3,-1.62258570300e+04
418,3,-1.99234973219e+04
419,3,-2.86546379764e+04
420,3,-2.86757731790e+04
421,3,-2.86970908249e+04
422,3,-2.87185910118e+04
423,3,-2.87402738371e+04
424,3,-9.63783717645e+04
425,3,-2.88368682167e+04
426,3,-2.88595310609e+04
427,3,-2.88823771914e+04
428,3,-2.89054067124e+04
429,3,-2.89286197312e+04
430,3,-2.01532189666e+04
431,3,-1.63977481321e+04
432,3,-2.45596917038e+04
433,3,-2.90019911357e+04
434,3,-2.90259595027e+04
435,3,-2.90501119243e+04
436,3,-2.90744485123e+04
437,3,-2.46812450041e+04
438,3,-1.64711055226e+04
439,3,-2.02525934468e+04
440,3,-2.91513041419e+04
441,3,-2.91763987746e+04
442,3,-2.92016781594e+04
443,3,-2.72973710441e+04
444,3,-1.01628752013e+05
445,3,-1.48071167353e+04
446,3,-1.00682876397e+04
447,3,-3.04389622768e+03
448,3,-2.16819453181e+04
449,3,-2.17607687955e+04
450,3,-1.41593295193e+03
451,3,-9.44350220721e+03
452,3,-1.80848021143e+04
453,3,-8.22801058832e+04
454,3,-1.09719314862e+04
455,3,-1.48288989231e+04
456,3,-2.05321159950e+04
457,3,-1.48143083901e+04
458,3,-1.02014464595e+04
459,3,-1.48000305637e+04
460,3,-2.04937609130e+04
461,3,-1.79651432771e+04
462,3,-1.01814034608e+04
463,3,-1.47700717996e+04
464,3,-2.04539589889e+04
465,3,-1.47559009580e+04
466,3,-1.01626469056e+04
467,3,-1.47420372508e+04
468,3,-2.04167153151e+04
469,3,-1.47280704514e+04
470,3,-1.01441606712e+04
471,3,-1.47144080612e+04
472,3,-2.03800119615e+04
473,3,-1.47006450577e+04
474,3,-1.01259444183e+04
475,3,-1.78662247486e+04
476,3,-2.03419351743e+04
477,3,-1.46721948954e+04
478,3,-1.01070312667e+04
479,3,-1.46589278707e+04
480,3,-2.03063392068e+04
481,3,-1.46455822064e+04
482,3,-1.00893503395e+04
483,3,-1.46325328812e+04
484,3,-2.02712815729e+04
485,3,-1.46193902957e+04
486,3,-1.00719555678e+04
487,3,-1.46065412776e+04
488,3,-8.78074458811e+04
489,3,-1.45646653385e+04
490,3,-1.00356144264e+04
491,3,-1.45522444039e+04
492,3,-2.01646554119e+04
493,3,-1.45397382365e+04
494,3,-1.00190626545e+04
495,3,-1.45275168723e+04
496,3,-2.01318203844e+04
497,3,-1.45152128584e+04
498,3,-1.00027786381e+04
499,3,-1.45031908382e+04
500,3,-2.00995205302e+04
501,3,-1.76706592043e+04
502,3,-9.98590417927e+03
503,3,-1.44779843978e+04
504,3,-2.00660539181e+04
505,3,-1.44660949527e+04
506,3,-9.97016923939e+03
507,3,-1.44544817022e+04
508,3,-2.00348515290e+04
509,3,-1.44427937737e+04
510,3,-9.95470118646e+03
511,3,-1.44313792025e+04
512,3,-2.00041825814e+04
513,3,-1.44198925900e+04
514,3,-9.93949974623e+03
515,3,-1.75878630593e+04
516,3,-1.99724245780e+04
517,3,-1.43961799849e+04
518,3,-9.92376089238e+03
519,3,-1.43851729140e+04
520,3,-1.99428497952e+04
521,3,-1.43740992557e+04
522,3,-9.90910632444e+03
523,3,-1.43632902373e+04
524,3,-1.99138068216e+04
525,3,-1.43524173055e+04
526,3,-9.89471756515e+03
527,3,-1.43418061424e+04
528,3,-8.74591231232e+04
529,3,-1.43069135054e+04
530,3,-9.86452394127e+03
531,3,-1.42967293433e+04
532,3,-1.98254814222e+04
533,3,-1.42864897985e+04
534,3,-9.85097388408e+03
535,3,-1.42765028939e+04
536,3,-1.97986461580e+04
537,3,-1.42664633306e+04
538,3,-9.83768861699e+03
539,3,-1.42566735048e+04
540,3,-1.97723401697e+04
541,3,-1.74264792777e+04
542,3,-9.82396018143e+03
543,3,-1.42361846397e+04
544,3,-1.97451620525e+04
545,3,-1.42265554985e+04
546,3,-9.81121832124e+03
547,3,-1.42171701061e+04
548,3,-1.97199422636e+04
549,3,-1.42077404407e+04
550,3,-9.79874055925e+03
551,3,-1.41985515989e+04
552,3,-1.96952503794e+04
553,3,-1.41893212512e+04
554,3,-9.78652667919e+03
555,3,-1.73596672750e+04
556,3,-1.96697678704e+04
557,3,-1.41703145326e+04
558,3,-9.77392470031e+03
559,3,-1.41615291254e+04
560,3,-1.96461595951e+04
561,3,-1.41527079317e+04
562,3,-9.76225248731e+03
563,3,-1.41441185841e+04
564,3,-1.96230779501e+04
565,3,-1.41354962483e+04
566,3,-9.75084352550e+03
567,3,-1.41270820993e+04
568,3,-8.71775818634e+04
569,3,-1.40993475417e+04
570,3,-9.72690044691e+03
571,3,-1.40913806061e+04
572,3,-1.95531675486e+04
573,3,-1.40833895357e+04
574,3,-9.71632694011e+03
575,3,-1.40756180670e+04
576,3,-1.95322830336e+04
577,3,-1.40678252909e+04
578,3,-9.70601589484e+03
579,3,-1.40602491518e+04
580,3,-1.95119232648e+04
581,3,-1.72323780107e+04
582,3,-9.69541530387e+03
583,3,-1.40444512830e+04
584,3,-1.94909988235e+04
585,3,-1.40370657363e+04
586,3,-9.68564324665e+03
587,3,-1.40298907144e+04
588,3,-1.94717166805e+04
589,3,-1.40227030797e+04
590,3,-9.67613312661e+03
591,3,-1.40157229888e+04
592,3,-1.94529582493e+04
593,3,-1.40087331480e+04
594,3,-9.66688478161e+03
595,3,-1.71814437021e+04
596,3,-1.94337198526e+04
597,3,-1.39944087053e+04
598,3,-9.65740368102e+03
599,3,-1.39878289830e+04
600,3,-1.94160371103e+04
601,3,-1.39812454248e+04
602,3,-9.64869302256e+03
603,3,-1.39748602679e+04
604,3,-1.93988771328e+04
605,3,-8.11832832427e+04
606,3,-1.61392514324e+04
607,3,-7.40288695509e+03
608,3,-2.82311610583e+03
609,3,-8.16472229652e+03
610,3,-1.42612630727e+04
611,3,-7.35134719734e+04
612,3,-1.41282740628e+04
613,3,-1.96020611402e+04
614,3,-1.41198364942e+04
615,3,-9.74047827657e+03
616,3,-1.41116251743e+04
617,3,-1.95799950279e+04
618,3,-1.41033862016e+04
619,3,-9.72957663827e+03
620,3,-1.72747779115e+04
621,3,-1.95572742015e+04
622,3,-1.40864503114e+04
623,3,-9.71835483693e+03
624,3,-1.40786409861e+04
625,3,-1.95362879873e+04
626,3,-1.40708098045e+04
627,3,-9.70799295890e+03
628,3,-1.40631958350e+04
629,3,-1.95158265870e+04
630,3,-1.40555628435e+04
631,3,-9.69789339974e+03
632,3,-9.81935176073e+03
633,3,-1.16643462269e+04
634,3,-1.52392448629e+04
635,3,-1.40398933796e+04
636,3,-9.68751574909e+03
637,3,-1.40326805830e+04
638,3,-1.94754109516e+04
639,3,-1.40254546197e+04
640,3,-9.67795490156e+03
641,3,-1.40184367779e+04
642,3,-1.94565510962e+04
643,3,-1.40114086312e+04
644,3,-9.66865586010e+03
645,3,-1.40045856204e+04
646,3,-8.70177131988e+04
647,3,-1.39820410351e+04
648,3,-9.64921945460e+03
649,3,-1.39756439549e+04
650,3,-1.93999139814e+04
651,3,-1.39692457505e+04
652,3,-9.64075409145e+03
653,3,-1.39630431303e+04
654,3,-1.93832444590e+04
655,3,-1.39568422824e+04
656,3,-9.63254990282e+03
657,3,-1.39508340133e+04
658,3,-1.51718379890e+04
659,3,-1.15969770616e+04
660,3,-9.72245417672e+03
661,3,-9.62416891962e+03
662,3,-1.39383650981e+04
663,3,-1.93506107413e+04
664,3,-1.39325697199e+04
665,3,-9.61650129906e+03
666,3,-1.39269741272e+04
667,3,-1.93355628626e+04
668,3,-1.39213755756e+04
669,3,-9.60909443667e+03
670,3,-1.39159601811e+04
671,3,-1.93210084730e+04
672,3,-1.70903609099e+04
673,3,-9.60155408055e+03
674,3,-1.39047513532e+04
675,3,-1.93062015322e+04
676,3,-1.38995577143e+04
677,3,-9.59468302599e+03
678,3,-1.38945410111e+04
679,3,-1.92927184895e+04
680,3,-1.38895441625e+04
681,3,-9.58807236949e+03
682,3,-1.38847212201e+04
683,3,-1.92797561269e+04
684,3,-1.38799210821e+04
685,3,-7.71681013749e+04
686,3,-1.38645055532e+04
687,3,-1.92530890460e+04
688,3,-1.38601376009e+04
689,3,-9.56867584860e+03
690,3,-1.38559338494e+04
691,3,-1.92417906510e+04
692,3,-1.38517623740e+04
693,3,-9.56315729001e+03
694,3,-1.38477520608e+04
695,3,-1.92310121045e+04
696,3,-1.38437769958e+04
697,3,-9.55789860066e+03
698,3,-1.70196754492e+04
699,3,-1.92201890168e+04
700,3,-1.38357637390e+04
701,3,-9.55262495971e+03
702,3,-1.38321510237e+04
703,3,-1.92104790033e+04
704,3,-1.38285796841e+04
705,3,-9.54790042254e+03
706,3,-1.38251602101e+04
707,3,-1.92012883308e+04
708,3,-1.38217850982e+04
709,3,-9.54343549970e+03
710,3,-9.66561582814e+03
711,3,-1.15119007676e+04
712,3,-1.50131764223e+04
713,3,-1.38150289789e+04
714,3,-9.53899985393e+03
715,3,-1.38120067472e+04
716,3,-1.91840185192e+04
717,3,-1.38090350332e+04
718,3,-9.53506862450e+03
719,3,-1.38062058771e+04
720,3,-1.64023409806e+04
721,3,-7.38092754136e+04
722,3,-7.18685142300e+03
723,3,-2.88967270390e+03
724,3,-5.83657464922e+03
725,3,-6.71669343246e+03
726,3,-3.17431709865e+03
727,3,-4.97611103151e+04
728,3,-4.87152101578e+04
729,3,-1.54825348959e+04
730,3,-1.53765153099e+04
1001,3,-1.91839987456e+04
1002,3,-1.99255995990e+04
1003,3,-1.15610945509e+03
1004,3,-3.39216583971e+03
1005,3,-6.70206688193e+03
1006,3,-7.45143321463e+03
1007,3,-7.46015203261e+03
1008,3,-2.63430761217e+04
1009,3,-8.60342993394e+03
1010,3,-8.23628201459e+03
1011,3,-8.24294855336e+03
1012,3,-8.62497227047e+03
1013,3,-2.71389555037e+04
1014,3,-8.65572753284e+03
1015,3,-8.28670200684e+03
1016,3,-8.29374784383e+03
1017,3,-8.67849553791e+03
1018,3,-3.06302955329e+04
1019,3,-8.71403420491e+03
1020,3,-8.34289392629e+03
1021,3,-8.35034216711e+03
1022,3,-8.73810254271e+03
1023,3,-2.72587178861e+04
1024,3,-8.77214256175e+03
1025,3,-8.39887563282e+03
1026,3,-8.40670664888e+03
1027,3,-8.79744780427e+03
1028,3,-2.73214705339e+04
1029,3,-8.83307359351e+03
1030,3,-8.45755917600e+03
1031,3,-8.46577478898e+03
1032,3,-8.85962162748e+03
1033,3,-3.08220498377e+04
1034,3,-8.90043837422e+03
1035,3,-8.52242113058e+03
1036,3,-8.53104470979e+03
1037,3,-8.92830471509e+03
1038,3,-2.74597041459e+04
1039,3,-8.96716528743e+03
1040,3,-8.58665271790e+03
1041,3,-8.59566490638e+03
1042,3,-8.99630787726e+03
1043,3,-2.75314972180e+04
1044,3,-9.03674843407e+03
1045,3,-8.65361954790e+03
1046,3,-8.66302185543e+03
1047,3,-9.06713128083e+03
1048,3,-3.10412816528e+04
1049,3,-9.11312720522e+03
1050,3,-8.72710996731e+03
1051,3,-8.73692660414e+03
1052,3,-9.14484891917e+03
1053,3,-2.76881359962e+04
1054,3,-9.18845265414e+03
1055,3,-8.79957294559e+03
1056,3,-8.80978484064e+03
1057,3,-9.22145160447e+03
1058,3,-2.69593813948e+04
1059,3,-8.05285406169e+03
1060,3,-8.06530852651e+03
1061,3,-7.66994294550e+03
1062,3,-4.18067741971e+03
1063,3,-7.75847739390e+02
1064,3,-1.29308515859e+03
1065,3,-1.41707953426e+03
1066,3,-7.35017502223e+02
1067,3,-4.56687980430e+03
1068,3,-7.98840978298e+03
1069,3,-7.60143404285e+03
1070,3,-7.59521234732e+03
1071,3,-7.58902967188e+03
1072,3,-8.34050216007e+03
1073,3,-2.72050199772e+04
1074,3,-8.68735526731e+03
1075,3,-8.30215847038e+03
1076,3,-8.29505156772e+03
1077,3,-8.66438993401e+03
1078,3,-2.71478600499e+04
1079,3,-8.63337697063e+03
1080,3,-8.25092420737e+03
1081,3,-8.24419686138e+03
1082,3,-8.61511730454e+03
1083,3,-3.05286564100e+04
1084,3,-8.57941426529e+03
1085,3,-8.19972560054e+03
1086,3,-8.19339765146e+03
1087,3,-8.55896605218e+03
1088,3,-2.70395822521e+04
1089,3,-8.53126774229e+03
1090,3,-8.15406623126e+03
1091,3,-8.14811469436e+03
1092,3,-8.51203587193e+03
1093,3,-2.69914582851e+04
1094,3,-8.48596002390e+03
1095,3,-8.11112076154e+03
1096,3,-8.10554423900e+03
1097,3,-8.46793997971e+03
1098,3,-3.03780645210e+04
1099,3,-8.44114544552e+03
1100,3,-8.06866796940e+03
1101,3,-8.06348653112e+03
1102,3,-8.42440208146e+03
1103,3,-2.69017671465e+04
1104,3,-8.40168524824e+03
1105,3,-8.03131301932e+03
1106,3,-8.02650398994e+03
1107,3,-8.38614529098e+03
1108,3,-2.68627040332e+04
1109,3,-8.36507083182e+03
1110,3,-7.99667891576e+03
1111,3,-7.99224116051e+03
1112,3,-8.35073061423e+03
1113,3,-3.02586299484e+04
1114,3,-8.32943781517e+03
1115,3,-7.96300480387e+03
1116,3,-7.95895866572e+03
1117,3,-8.31636307398e+03
1118,3,-2.67916608451e+04
1119,3,-8.29868650210e+03
1120,3,-7.93397669081e+03
1121,3,-7.93029976255e+03
1122,3,-8.28680483030e+03
1123,3,-2.67616832290e+04
1124,3,-8.27078746438e+03
1125,3,-7.90767591210e+03
1126,3,-7.90436732255e+03
1127,3,-8.26009604701e+03
1128,3,-2.90915717797e+04
1129,3,-7.16938849020e+03
1130,3,-7.88361943466e+03
1131,3,-7.88068642849e+03
1132,3,-7.16187416519e+03
1133,3,-2.45639803593e+04
1134,3,-7.15150738615e+03
1135,3,-7.86425954816e+03
1136,3,-7.86166669387e+03
1137,3,-7.14486452600e+03
1138,3,-2.45492403861e+04
1139,3,-6.89796434621e+03
1140,3,-7.37178621998e+03
1141,3,-7.36979393168e+03
1142,3,-6.89261356183e+03
1143,3,-2.79693723175e+04
1144,3,-7.12168938378e+03
1145,3,-7.83208844155e+03
1146,3,-7.83018697209e+03
1147,3,-7.11681784288e+03
1148,3,-2.45251604396e+04
1149,3,-7.11029698633e+03
1150,3,-7.81986487278e+03
1151,3,-7.81830220991e+03
1152,3,-7.10629346367e+03
1153,3,-2.52263637590e+04
1154,3,-7.81103151865e+03
1155,3,-7.80976759873e+03
1156,3,-7.80855226782e+03
1157,3,-7.80710165465e+03
1158,3,-2.86515542578e+04
1159,3,-7.09353095228e+03
1160,3,-7.80176223466e+03
1161,3,-7.80091507411e+03
1162,3,-7.09079481121e+03
1163,3,-2.45037785832e+04
1164,3,-7.08880436473e+03
1165,3,-7.79686894109e+03
1166,3,-7.79635997287e+03
1167,3,-7.08693329509e+03
1168,3,-2.45008768079e+04
1169,3,-6.85002608572e+03
1170,3,-7.32195813384e+03
1171,3,-7.32180345163e+03
1172,3,-6.84904316583e+03
1173,3,-2.79329160889e+04
1174,3,-7.08579722465e+03
1175,3,-7.79418821830e+03
1176,3,-7.79436802699e+03
1177,3,-7.08569165580e+03
1178,3,-2.45009287802e+04
1179,3,-7.08757478630e+03
1180,3,-7.79645009029e+03
1181,3,-7.79696799834e+03
1182,3,-7.08833468457e+03
1183,3,-2.45038815697e+04
1184,3,-6.85509844105e+03
1185,3,-7.32822776862e+03
1186,3,-7.32897936904e+03
1187,3,-6.85654798076e+03
1188,3,-2.79418046505e+04
1189,3,-7.09781436218e+03
1190,3,-7.80833931675e+03
1191,3,-7.80954592911e+03
1192,3,-7.10033775657e+03
1193,3,-2.45158513558e+04
1194,3,-7.10609002152e+03
1195,3,-7.81774985464e+03
1196,3,-7.81929495097e+03
1197,3,-7.10947991088e+03
1198,3,-2.52362725016e+04
1199,3,-7.82829208694e+03
1200,3,-7.82985152842e+03
1201,3,-7.83174427138e+03
1202,3,-7.83368573838e+03
1203,3,-2.86815453328e+04
1204,3,-7.13035591436e+03
1205,3,-7.84540672782e+03
1206,3,-7.84766894789e+03
1207,3,-7.13615169378e+03
1208,3,-2.45496067199e+04
1209,3,-7.14528835016e+03
1210,3,-7.86214109763e+03
1211,3,-7.86474297148e+03
1212,3,-7.15195431832e+03
1213,3,-2.45643976693e+04
1214,3,-6.92353271487e+03
1215,3,-7.40340658210e+03
1216,3,-7.40599888344e+03
1217,3,-6.93049498308e+03
1218,3,-2.90915789975e+04
1219,3,-8.26010420685e+03
1220,3,-7.90437525176e+03
1221,3,-7.90768396006e+03
1222,3,-8.27079600796e+03
1223,3,-2.67616924238e+04
1224,3,-8.28681391014e+03
1225,3,-7.93030857191e+03
1226,3,-7.93398561919e+03
1227,3,-8.29869596648e+03
1228,3,-2.31765969640e+04
1229,3,-5.90493512901e+03
1230,3,-1.03676183505e+04
1231,3,-1.03744502374e+04
1232,3,-9.53586992102e+03
1233,3,-3.02586410893e+04
1234,3,-8.35074158307e+03
1235,3,-7.99225177745e+03
1236,3,-7.99668965244e+03
1237,3,-8.36508218737e+03
1238,3,-2.68627161596e+04
1239,3,-8.38615717747e+03
1240,3,-8.02651548488e+03
1241,3,-8.03132463427e+03
1242,3,-8.40169752238e+03
1243,3,-2.69017802303e+04
1244,3,-8.42441488457e+03
1245,3,-8.06349890321e+03
1246,3,-8.06868046187e+03
1247,3,-8.44115863750e+03
1248,3,-3.03780785875e+04
1249,3,-8.46795374851e+03
1250,3,-8.10555753518e+03
1251,3,-8.11113417853e+03
1252,3,-8.48597418305e+03
1253,3,-2.69914733334e+04
1254,3,-8.51205055543e+03
1255,3,-8.14812886611e+03
1256,3,-8.15408052409e+03
1257,3,-8.53128281722e+03
1258,3,-2.70395982552e+04
1259,3,-8.55898164996e+03
1260,3,-8.19341269784e+03
1261,3,-8.19974076824e+03
1262,3,-8.57943025577e+03
1263,3,-3.05251911748e+04
1264,3,-8.61164882346e+03
1265,3,-8.24420716172e+03
1266,3,-8.25093458652e+03
1267,3,-8.63338790756e+03
1268,3,-2.71478716363e+04
1269,3,-8.66440120463e+03
1270,3,-8.29506243102e+03
1271,3,-8.30216941286e+03
1272,3,-8.68736679382e+03
1273,3,-2.64432794178e+04
1274,3,-7.57814390116e+03
1275,3,-7.58780245997e+03
1276,3,-7.59397736475e+03
1277,3,-7.60019128310e+03
1278,3,-8.74849502556e+03
1279,3,-5.32758861041e+03
1280,3,-7.35017740775e+02
1281,3,-1.41707953426e+03
1282,3,-1.29308515859e+03
1283,3,-7.49362901821e+02
1284,3,-1.48019616750e+03
1285,3,-4.80343234462e+03
1286,3,-7.68128424560e+03
1287,3,-7.67457926324e+03
1288,3,-7.66791370373e+03
1289,3,-7.66484696233e+03
1290,3,-2.63459455078e+04
1291,3,-8.96714477641e+03
1292,3,-9.14890495632e+03
1293,3,-9.13974931071e+03
1294,3,-9.32069119753e+03
1295,3,-2.72361452991e+04
1296,3,-8.90536535741e+03
1297,3,-9.08627329724e+03
1298,3,-9.07758925376e+03
1299,3,-9.25772711376e+03
1300,3,-3.06068016187e+04
1301,3,-8.84360517247e+03
1302,3,-9.02368401159e+03
1303,3,-9.01549478284e+03
1304,3,-9.19485417378e+03
1305,3,-2.71146403622e+04
1306,3,-8.78822725807e+03
1307,3,-8.96758568631e+03
1308,3,-8.95986363942e+03
1309,3,-9.13855046734e+03
1310,3,-2.70603501752e+04
1311,3,-8.73596792796e+03
1312,3,-8.91467034148e+03
1313,3,-8.90741350156e+03
1314,3,-9.08549200376e+03
1315,3,-3.04409579719e+04
1316,3,-8.68421620003e+03
1317,3,-8.86229648393e+03
1318,3,-8.85552843024e+03
1319,3,-9.03303495539e+03
1320,3,-2.69587758655e+04
1321,3,-8.63837126838e+03
1322,3,-8.81592834978e+03
1323,3,-8.80962180710e+03
1324,3,-8.98665252912e+03
1325,3,-2.69142152526e+04
1326,3,-8.59565058070e+03
1327,3,-8.77274932285e+03
1328,3,-8.76690266958e+03
1329,3,-8.94352232923e+03
1330,3,-3.03048049231e+04
1331,3,-8.55394577088e+03
1332,3,-8.73063122818e+03
1333,3,-8.72526841058e+03
1334,3,-8.90152457222e+03
1335,3,-2.68326337168e+04
1336,3,-8.51765340840e+03
1337,3,-8.69401434614e+03
1338,3,-8.68910844917e+03
1339,3,-8.86508715481e+03
1340,3,-2.64334132345e+04
1341,3,-7.39849245418e+03
1342,3,-7.21809723429e+03
1343,3,-7.21499191646e+03
1344,3,-7.21192368922e+03
1345,3,-6.84859065914e+03
1346,3,-3.61306147121e+03
1347,3,-7.24612035988e+02
1348,3,-3.63382047132e+03
1349,3,-6.92025507070e+03
1350,3,-7.28085307569e+03
1351,3,-7.27707233420e+03
1352,3,-7.27670936765e+03
1353,3,-2.61171259181e+04
1354,3,-8.34486334579e+03
1355,3,-7.97757794743e+03
1356,3,-7.97335809118e+03
1357,3,-8.33122724971e+03
1358,3,-2.68067656018e+04
1359,3,-8.31277320305e+03
1360,3,-7.94726968209e+03
1361,3,-7.94341947464e+03
1362,3,-8.30033159476e+03
1363,3,-3.02075448170e+04
1364,3,-8.28192335340e+03
1365,3,-7.91816919231e+03
1366,3,-7.91470911879e+03
1367,3,-8.27074242888e+03
1368,3,-2.67454330963e+04
1369,3,-8.25570367840e+03
1370,3,-7.89347425613e+03
1371,3,-7.89038204921e+03
1372,3,-8.24571148253e+03
1373,3,-2.67201834017e+04
1374,3,-8.23233922171e+03
1375,3,-7.87150961306e+03
1376,3,-7.86878453896e+03
1377,3,-8.22353338336e+03
1378,3,-3.01303274791e+04
1379,3,-8.21072119391e+03
1380,3,-7.85123715851e+03
1381,3,-7.84889997623e+03
1382,3,-8.20316879402e+03
1383,3,-2.66775872743e+04
1384,3,-8.19323907120e+03
1385,3,-7.83489776393e+03
1386,3,-7.83292647653e+03
1387,3,-8.18686902852e+03
1388,3,-2.63025555787e+04
1389,3,-8.17531034623e+03
1390,3,-8.53232252487e+03
1391,3,-8.17505449270e+03
1392,3,-4.25123500651e+03
1393,3,-7.23497609354e+02
1394,3,-1.86270062190e+04
1395,3,-1.82453658587e+04
*NODE PRINT,NSET=ALL
U,RF
*NODE FILE
U
*END STEP
