*HEADING
DYN_ISO_MAIN_SLIDE_STATIC daughter of 974211b2; not a new main; not 00fc277e replace-card
parent loads = stacked P1 / P2-step1 恒载 (GRAV + 二期, no construction, no wind, no temperature)
units: CalculiX N, mm, s; density t/mm3; g=9806 mm/s2
IC format ccx_2.21_s7.76_element_ip_six_pk2_global
imported_TARGET_FREQ=false
not_a_scientific_claim=true
bc_family=UYFREE; omitted 010 migrate-plane UY=0; 111 and 011 retained
SLIDE_STATIC change K; extra BC in model definition; geom MAIN_SLIDE
*NODE
1, 852105, 0, 28152
2, 874000, 0, 54653.835
3, 874962, 0, 55823
4, 876000, 0, 56551.407
5, 879000, 0, 58658.669
6, 879888, 0, 59283
7, 881000, 0, 59628.331
8, 886000, 0, 61185.542
9, 891000, 0, 62781.367
10, 897000, 0, 64707.421
11, 900000, 0, 65674.728
12, 903000, 0, 66645.007
13, 909000, 0, 68594.235
14, 915000, 0, 70555.422
15, 918000, 0, 71540.304
16, 921000, 0, 72528.161
17, 927000, 0, 74514.469
18, 933000, 0, 76512.756
19, 936000, 0, 77516.195
20, 939000, 0, 78522.615
21, 945000, 0, 80544.15
22, 951000, 0, 82577.683
23, 954000, 0, 83598.753
24, 957000, 0, 84622.808
25, 963000, 0, 86679.626
26, 969000, 0, 88748.461
27, 972000, 0, 89787.189
28, 975000, 0, 90828.908
29, 978000, 0, 91873.65
30, 981000, 0, 92921.975
31, 987000, 0, 95028.079
32, 990000, 0, 96085.451
33, 993000, 0, 97145.818
34, 999000, 0, 99275.286
35, 1005000, 0, 101416.81
36, 1008000, 0, 102491.9
37, 1011000, 0, 103569.99
38, 1017000, 0, 105734.92
39, 1023000, 0, 107911.92
40, 1026000, 0, 109004.76
41, 1029000, 0, 110100.6
42, 1035000, 0, 112301.04
43, 1041000, 0, 114554.19
44, 1044000, 0, 115685.11
45, 1047000, 0, 116819.05
46, 1053000, 0, 119095.73
47, 1059000, 0, 121384.54
48, 1062000, 0, 122533.31
49, 1065000, 0, 123685.1
50, 1071000, 0, 125997.48
51, 1077000, 0, 128322.03
52, 1080000, 0, 129488.67
53, 1083000, 0, 130658.34
54, 1089000, 0, 133006.5
55, 1092000, 0, 134185.35
56, 1095000, 0, 135367.83
57, 1098000, 0, 136553.37
58, 1101000, 0, 137741.94
59, 1107000, 0, 140127.85
60, 1113000, 0, 142525.97
61, 1116000, 0, 143729.45
62, 1119000, 0, 144935.97
63, 1125000, 0, 147357.79
64, 1131000, 0, 149791.83
65, 1134000, 0, 151013.29
66, 1137000, 0, 152237.78
67, 1143000, 0, 154695.58
68, 1149000, 0, 157165.63
69, 1152000, 0, 158406.04
70, 1155000, 0, 159649.5
71, 1161000, 0, 162145.25
72, 1167000, 0, 164653.28
73, 1170000, 0, 165911.74
74, 1173000, 0, 167173.25
75, 1179000, 0, 169705.11
76, 1185000, 0, 172249.28
77, 1188000, 0, 173525.81
78, 1191000, 0, 174805.4
79, 1197000, 0, 177373.46
80, 1203000, 0, 179953.83
81, 1206000, 0, 181248.47
82, 1209000, 0, 182566.48
83, 1215000, 0, 185211.4
84, 1221000, 0, 187868.7
85, 1224000, 0, 189201.82
86, 1227000, 0, 190538.03
87, 1233000, 0, 193219.36
88, 1239000, 0, 195913.08
89, 1242000, 0, 197264.43
90, 1245000, 0, 198618.87
91, 1251000, 0, 201336.68
92, 1257000, 0, 204066.91
93, 1260000, 0, 205436.52
94, 1263000, 0, 206809.22
95, 1269000, 0, 209565.5
96, 1275000, 0, 212334.22
97, 1278000, 0, 213723.09
98, 1281000, 0, 215115.05
99, 1287000, 0, 217907.97
100, 1293000, 0, 220713.35
101, 1296000, 0, 222120.56
102, 1299000, 0, 223530.87
103, 1305000, 0, 226360.49
104, 1311000, 0, 229202.61
105, 1314000, 0, 230628.19
106, 1317000, 0, 232056.89
107, 1320009.3, 0, 233493.17
108, 1323000, 0, 234924.27
109, 1329000, 0, 237805.12
110, 1332000, 0, 239250.07
111, 1335000, 0, 240698.15
112, 1341000, 0, 243603.34
113, 1347000, 0, 246521.09
114, 1350000, 0, 247984.5
115, 1353000, 0, 249451.04
116, 1359000, 0, 252393.19
117, 1365000, 0, 255347.91
118, 1368000, 0, 256829.82
119, 1371000, 0, 258314.87
120, 1377000, 0, 261294.05
121, 1383000, 0, 264326.43
122, 1386000, 0, 265847.2
123, 1389000, 0, 267371.11
124, 1395000, 0, 270428.07
125, 1401000, 0, 273497.69
126, 1404000, 0, 275037.08
127, 1407000, 0, 276579.62
128, 1413000, 0, 279673.87
129, 1419000, 0, 282780.8
130, 1422000, 0, 284338.86
131, 1425000, 0, 285900.08
132, 1431000, 0, 289031.69
133, 1434009.3, 0, 290607.34
134, 1437000, 0, 292176.99
135, 1440000, 0, 293754.71
136, 1443000, 0, 295335.61
137, 1449000, 0, 298506.59
138, 1455000, 0, 301690.32
139, 1458000, 0, 303286.81
140, 1461000, 0, 304886.46
141, 1467000, 0, 308094.99
142, 1473000, 0, 311316.3
143, 1476000, 0, 312931.58
144, 1479000, 0, 314550.05
145, 1485000, 0, 317796.22
146, 1491000, 0, 321055.19
147, 1494000, 0, 322690.27
148, 1497000, 0, 324328.54
149, 1503000, 0, 327614.34
150, 1509000, 0, 330912.99
151, 1515000, 0, 334223.75
152, 1520000, 0, 337025.42
153, 1525000, 0, 339834.99
154, 1526359, 0, 340600
155, 1528000, 4.3423746e-17, 340596.4
156, 1541000, 1.1120764e-21, 340596.33
157, 1542679, 0, 340600
158, 1544000, 4.3582023e-14, 339857.23
159, 1548000, 1.753118e-13, 337611.78
160, 1553300, 3.5402694e-13, 334645
161, 1561000, 3.3504321e-13, 331649.21
162, 1570000, 3.1338e-13, 328171.52
163, 1579000, 2.9171798e-13, 324719.37
164, 1588000, 2.7005642e-13, 321292.73
165, 1597000, 2.4839555e-13, 317891.6
166, 1600000, 2.4116402e-13, 316763.77
167, 1606000, 2.2671898e-13, 314517.76
168, 1615000, 2.0505968e-13, 311170.34
169, 1624000, 1.8340121e-13, 307848.34
170, 1633000, 1.6174349e-13, 304551.76
171, 1642000, 1.4008635e-13, 301280.56
172, 1651000, 1.1842995e-13, 298034.72
173, 1657000, 1.0398596e-13, 295885.15
174, 1660000, 9.6766665e-14, 294815.16
175, 1669000, 7.511246e-14, 291622.79
176, 1678000, 5.3458018e-14, 288455.71
177, 1687000, 3.1804101e-14, 285313.92
178, 1696000, 1.0150902e-14, 282197.39
179, 1705000, -1.1501453e-14, 279106.1
180, 1714000, -3.3157952e-14, 276040.03
181, 1723000, -5.4808764e-14, 273058.48
182, 1732000, -7.645899e-14, 270102.06
183, 1741000, -9.8109221e-14, 267170.76
184, 1750000, -1.1975893e-13, 264264.56
185, 1759000, -1.4140817e-13, 261383.44
186, 1768000, -1.6305706e-13, 258527.39
187, 1771009.3, -1.7028268e-13, 257578.27
188, 1777000, -1.8470433e-13, 255698.24
189, 1786000, -2.0635285e-13, 252895.05
190, 1795000, -2.2800117e-13, 250116.86
191, 1804000, -2.4964866e-13, 247363.66
192, 1813000, -2.7129612e-13, 244635.44
193, 1822000, -2.9294322e-13, 241932.17
194, 1828009.3, -3.0741086e-13, 240141.31
195, 1831000, -3.1458753e-13, 239254.76
196, 1840000, -3.3623429e-13, 236604.13
197, 1849000, -3.5788097e-13, 233978.41
198, 1858000, -3.7952763e-13, 231377.57
199, 1867000, -4.0117403e-13, 228801.6
200, 1876000, -4.2282055e-13, 226250.47
201, 1885000, -4.4446689e-13, 223724.19
202, 1894000, -4.6611339e-13, 221282.03
203, 1903000, -4.8775986e-13, 218864.64
204, 1912000, -5.0940637e-13, 216472
205, 1921000, -5.3105262e-13, 214104.1
206, 1930000, -5.5269927e-13, 211760.91
207, 1939000, -5.7434593e-13, 209442.43
208, 1942009.3, -5.8155851e-13, 208672.98
209, 1948000, -5.959879e-13, 207150.49
210, 1957000, -6.1763494e-13, 204884.16
211, 1966000, -6.3928222e-13, 202642.49
212, 1975000, -6.6092951e-13, 200425.47
213, 1984000, -6.8257703e-13, 198233.07
214, 1993000, -7.0422482e-13, 196065.29
215, 1999009.3, -7.1870215e-13, 194631.79
216, 2002000, -7.258664e-13, 193923.04
217, 2011000, -7.4751501e-13, 191807.23
218, 2020000, -7.6916346e-13, 189716.01
219, 2029000, -7.9081249e-13, 187649.34
220, 2038000, -8.1246149e-13, 185607.22
221, 2047000, -8.3411103e-13, 183589.63
222, 2056000, -8.5576061e-13, 181596.56
223, 2065000, -8.7741179e-13, 179687.32
224, 2074000, -8.9906343e-13, 177802.55
225, 2083000, -9.2071565e-13, 175942.23
226, 2092000, -9.423678e-13, 174106.35
227, 2101000, -9.6402111e-13, 172294.9
228, 2110000, -9.8567475e-13, 170507.86
229, 2113009.3, -9.9287575e-13, 169916.05
230, 2119000, -1.0073201e-12, 168747.1
231, 2128000, -1.0289746e-12, 167011.66
232, 2137000, -1.0506294e-12, 165300.6
233, 2146000, -1.0722844e-12, 163613.92
234, 2155000, -1.0939402e-12, 161951.59
235, 2164000, -1.1155965e-12, 160313.62
236, 2170009.3, -1.1300901e-12, 159233.73
237, 2173000, -1.1372433e-12, 158700.92
238, 2182000, -1.158901e-12, 157114.4
239, 2191000, -1.1805591e-12, 155552.21
240, 2200000, -1.202218e-12, 154014.32
241, 2209000, -1.2238769e-12, 152500.74
242, 2218000, -1.2455367e-12, 151011.44
243, 2227000, -1.2671972e-12, 149546.42
244, 2236000, -1.2888594e-12, 148165
245, 2245000, -1.3105223e-12, 146807.81
246, 2254000, -1.3321858e-12, 145474.86
247, 2263000, -1.3538499e-12, 144166.13
248, 2272000, -1.3755145e-12, 142881.61
249, 2278009.3, -1.3900202e-12, 142037.64
250, 2281000, -1.3971675e-12, 141622.22
251, 2290000, -1.4188334e-12, 140388.89
252, 2299000, -1.4404998e-12, 139179.76
253, 2308000, -1.4621668e-12, 137994.8
254, 2317000, -1.4838346e-12, 136834.01
255, 2326000, -1.5055028e-12, 135697.4
256, 2329009.3, -1.5126927e-12, 135323
257, 2335000, -1.5271592e-12, 134586.79
258, 2344000, -1.5488287e-12, 133501.27
259, 2353000, -1.5704988e-12, 132439.9
260, 2362000, -1.5921693e-12, 131402.66
261, 2371000, -1.6138405e-12, 130389.55
262, 2378009.3, -1.6307482e-12, 129617.42
263, 2380000, -1.6355028e-12, 129413.69
264, 2389000, -1.6571761e-12, 128508.15
265, 2398000, -1.6788502e-12, 127626.7
266, 2407000, -1.7005247e-12, 126769.34
267, 2416000, -1.7221996e-12, 125936.07
268, 2425000, -1.7438751e-12, 125126.88
269, 2429009.3, -1.75361e-12, 124774.41
270, 2434000, -1.7656937e-12, 124343.28
271, 2443000, -1.7873702e-12, 123585.03
272, 2452000, -1.8090469e-12, 122850.84
273, 2461000, -1.8307242e-12, 122140.71
274, 2470000, -1.852402e-12, 121454.63
275, 2479000, -1.8740801e-12, 120792.6
276, 2480009.3, -1.8764897e-12, 120719.98
277, 2488000, -1.8957539e-12, 120157.1
278, 2497000, -1.9174331e-12, 119545.96
279, 2506000, -1.9391124e-12, 118958.85
280, 2515000, -1.9607924e-12, 118395.78
281, 2524000, -1.9824728e-12, 117856.74
282, 2533000, -2.0041535e-12, 117341.72
283, 2535008.5, -2.0089479e-12, 117230.26
284, 2542000, -2.0258254e-12, 116896.82
285, 2551000, -2.0475071e-12, 116489.18
286, 2560000, -2.0691892e-12, 116105.55
287, 2569000, -2.0908715e-12, 115745.93
288, 2578000, -2.1125538e-12, 115410.31
289, 2586008.5, -2.1318649e-12, 115131.96
290, 2587000, -2.1342313e-12, 115099
291, 2596000, -2.1559139e-12, 114814.19
292, 2605000, -2.177597e-12, 114553.37
293, 2614000, -2.1992803e-12, 114316.55
294, 2623000, -2.2209635e-12, 114103.72
295, 2632000, -2.2426467e-12, 113914.89
296, 2637008.5, -2.2547836e-12, 113820.47
297, 2641000, -2.2644878e-12, 113751.29
298, 2650000, -2.2861712e-12, 113613.24
299, 2659000, -2.3078548e-12, 113499.19
300, 2668000, -2.3295382e-12, 113409.12
301, 2677000, -2.3512218e-12, 113343.05
302, 2686000, -2.3728976e-12, 113300
303, 2695000, -1.552181e-12, 113342.21
304, 2704000, -1.5521913e-12, 113407.44
305, 2713000, -1.5522016e-12, 113496.67
306, 2722000, -1.5522119e-12, 113609.89
307, 2731000, -1.5522221e-12, 113747.09
308, 2737008.5, -1.552229e-12, 113852.3
309, 2740000, -1.5522324e-12, 113909.23
310, 2749000, -1.5522427e-12, 114097.22
311, 2758000, -1.5522529e-12, 114309.21
312, 2767000, -1.5522632e-12, 114545.19
313, 2776000, -1.5522735e-12, 114805.17
314, 2785000, -1.5522838e-12, 115089.14
315, 2788008.5, -1.5522872e-12, 115189.68
316, 2794000, -1.552294e-12, 115399
317, 2803000, -1.5523043e-12, 115733.78
318, 2812000, -1.5523146e-12, 116092.56
319, 2821000, -1.5523249e-12, 116475.35
320, 2830000, -1.5523351e-12, 116882.15
321, 2837008.5, -1.5523431e-12, 117215.77
322, 2839000, -1.5523454e-12, 117326.1
323, 2848000, -1.5523557e-12, 117840.27
324, 2857000, -1.552366e-12, 118378.47
325, 2866000, -1.5523762e-12, 118940.71
326, 2875000, -1.5523865e-12, 119526.97
327, 2884000, -1.5523968e-12, 120137.28
328, 2888008.5, -1.5524014e-12, 120417.13
329, 2893000, -1.5524071e-12, 120773.2
330, 2902000, -1.5524173e-12, 121434.39
331, 2911000, -1.5524276e-12, 122119.62
332, 2920000, -1.5524379e-12, 122828.91
333, 2929000, -1.5524482e-12, 123562.26
334, 2938000, -1.5524585e-12, 124319.67
335, 2939008.5, -1.5524596e-12, 124406.15
336, 2947000, -1.5524687e-12, 125103.63
337, 2956000, -1.552479e-12, 125911.98
338, 2965000, -1.5524893e-12, 126744.41
339, 2974000, -1.5524996e-12, 127600.92
340, 2983000, -1.5525098e-12, 128481.53
341, 2992000, -1.5525201e-12, 129386.23
342, 2994009.3, -1.5525224e-12, 129591.68
343, 3001000, -1.5525304e-12, 130361.13
344, 3010000, -1.5525407e-12, 131373.39
345, 3019000, -1.552551e-12, 132409.79
346, 3028000, -1.5525612e-12, 133470.32
347, 3037000, -1.5525715e-12, 134554.99
348, 3045009.3, -1.5525807e-12, 135540.69
349, 3046000, -1.5525818e-12, 135664.13
350, 3055000, -1.5525921e-12, 136799.9
351, 3064000, -1.5526023e-12, 137959.84
352, 3073000, -1.5526126e-12, 139143.95
353, 3082000, -1.5526229e-12, 140352.25
354, 3091000, -1.5526332e-12, 141584.73
355, 3096009.3, -1.5526389e-12, 142281.49
356, 3100000, -1.5526435e-12, 142842.64
357, 3109000, -1.5526537e-12, 144126.32
358, 3118000, -1.552664e-12, 145434.2
359, 3127000, -1.5526743e-12, 146766.31
360, 3136000, -1.5526846e-12, 148122.65
361, 3145000, -1.5526949e-12, 149503.22
362, 3154000, -1.5527051e-12, 150967.39
363, 3163000, -1.5527154e-12, 152455.84
364, 3172000, -1.5527257e-12, 153968.58
365, 3181000, -1.552736e-12, 155505.62
366, 3190000, -1.5527463e-12, 157066.96
367, 3199000, -1.5527565e-12, 158652.63
368, 3202009.3, -1.55276e-12, 159188.48
369, 3208000, -1.5527668e-12, 160264.48
370, 3217000, -1.5527771e-12, 161901.6
371, 3226000, -1.5527874e-12, 163563.07
372, 3235000, -1.5527977e-12, 165248.91
373, 3244000, -1.552808e-12, 166959.11
374, 3253000, -1.5528182e-12, 168693.7
375, 3259009.3, -1.5528251e-12, 169865.73
376, 3262000, -1.5528285e-12, 170453.61
377, 3271000, -1.5528388e-12, 172239.79
378, 3280000, -1.5528491e-12, 174050.39
379, 3289000, -1.5528594e-12, 175885.41
380, 3298000, -1.5528696e-12, 177744.88
381, 3307000, -1.5528799e-12, 179628.8
382, 3316000, -1.5528902e-12, 181537.19
383, 3325000, -1.5529005e-12, 183529.4
384, 3334000, -1.5529108e-12, 185546.13
385, 3343000, -1.5529211e-12, 187587.4
386, 3352000, -1.5529313e-12, 189653.21
387, 3361000, -1.5529416e-12, 191743.58
388, 3370000, -1.5529519e-12, 193858.52
389, 3373009.3, -1.5529554e-12, 194571.4
390, 3379000, -1.5529622e-12, 195999.91
391, 3388000, -1.5529725e-12, 198166.84
392, 3397000, -1.5529828e-12, 200358.37
393, 3406000, -1.5529931e-12, 202574.54
394, 3415000, -1.5530033e-12, 204815.35
395, 3424000, -1.5530136e-12, 207080.82
396, 3430009.3, -1.5530205e-12, 208607.48
397, 3433000, -1.5530239e-12, 209371.89
398, 3442000, -1.5530342e-12, 211689.51
399, 3451000, -1.5530445e-12, 214031.84
400, 3460000, -1.5530548e-12, 216398.88
401, 3469000, -1.553065e-12, 218790.66
402, 3478000, -1.5530753e-12, 221207.19
403, 3487000, -1.5530856e-12, 223648.48
404, 3496000, -1.5530959e-12, 226173.9
405, 3505000, -1.5531062e-12, 228724.16
406, 3514000, -1.5531165e-12, 231299.26
407, 3523000, -1.5531268e-12, 233899.24
408, 3532000, -1.553137e-12, 236524.1
409, 3541000, -1.5531473e-12, 239173.85
410, 3544009.3, -1.5531508e-12, 240065.63
411, 3550000, -1.5531576e-12, 241850.39
412, 3559000, -1.5531679e-12, 244552.79
413, 3568000, -1.5531782e-12, 247280.15
414, 3577000, -1.5531885e-12, 250032.47
415, 3586000, -1.5531988e-12, 252809.79
416, 3595000, -1.5532091e-12, 255612.11
417, 3601009.3, -1.5532159e-12, 257497.42
418, 3604000, -1.5532193e-12, 258440.39
419, 3613000, -1.5532296e-12, 261295.57
420, 3622000, -1.5532399e-12, 264175.81
421, 3631000, -1.5532502e-12, 267081.14
422, 3640000, -1.5532605e-12, 270011.56
423, 3649000, -1.5532708e-12, 272967.11
424, 3658000, -1.5532811e-12, 275947.79
425, 3667000, -1.5532914e-12, 279012.98
426, 3676000, -1.5533016e-12, 282103.39
427, 3685000, -1.5533119e-12, 285219.05
428, 3694000, -1.5533222e-12, 288359.96
429, 3703000, -1.5533325e-12, 291526.16
430, 3712000, -1.5533428e-12, 294717.65
431, 3715009.3, -1.5533462e-12, 295790.66
432, 3721000, -1.5533531e-12, 297936.33
433, 3730000, -1.5533634e-12, 301181.28
434, 3739000, -1.5533737e-12, 304451.6
435, 3748000, -1.553384e-12, 307747.31
436, 3757000, -1.5533942e-12, 311068.42
437, 3766000, -1.5534045e-12, 314414.96
438, 3772009.3, -1.5534114e-12, 316663.86
439, 3775000, -1.5534148e-12, 317787.9
440, 3784000, -1.5534251e-12, 321188.16
441, 3793000, -1.5534354e-12, 324613.9
442, 3802000, -1.5534457e-12, 328065.17
443, 3811000, -1.553456e-12, 331541.97
444, 3818700, -8.573102e-13, 334537
445, 3823000, -5.1027158e-13, 336986.95
446, 3828000, -1.0678986e-13, 339843.77
447, 3829321, 0, 340600
448, 3830000, 2.8011356e-17, 340598.39
449, 3845000, 4.631688e-19, 340598.26
450, 3845736, 0, 340600
451, 3846000, -2.4034248e-19, 340485.14
452, 3852000, -2.7643083e-17, 337880.32
453, 3858000, -5.5032695e-17, 335286.28
454, 3861500, -5.8290326e-17, 333801.8
455, 3864500, -6.0011525e-17, 332532.66
456, 3870500, -8.0350392e-17, 330003.25
457, 3876500, -1.0060171e-16, 327486.08
458, 3879500, -1.0226663e-16, 326231.91
459, 3882500, -1.0391925e-16, 324980.78
460, 3888500, -1.2402376e-16, 322487.37
461, 3894500, -1.4403661e-16, 320006.18
462, 3897500, -1.4562206e-16, 318770.94
463, 3900500, -1.4719873e-16, 317538.73
464, 3906500, -1.6699772e-16, 315083.16
465, 3912500, -1.8668207e-16, 312639.79
466, 3915500, -1.8818603e-16, 311422.5
467, 3918500, -1.8968137e-16, 310208.23
468, 3924500, -2.0909555e-16, 307788.52
469, 3930500, -2.2836381e-16, 305381
470, 3933500, -2.2942468e-16, 304181.61
471, 3936500, -2.3048704e-16, 302985.25
472, 3942500, -2.4944554e-16, 300601.35
473, 3948500, -2.6822158e-16, 298229.6
474, 3951500, -2.6904326e-16, 297048.09
475, 3954500, -2.6974654e-16, 295869.61
476, 3960500, -2.8813211e-16, 293523.33
477, 3966500, -3.0630639e-16, 291189.2
478, 3969500, -3.0713071e-16, 290026.49
479, 3972500, -3.079735e-16, 288866.84
480, 3978500, -3.2542288e-16, 286556.23
481, 3984500, -3.4107526e-16, 284257.74
482, 3987500, -3.4186185e-16, 283112.88
483, 3990500, -3.4264127e-16, 281971.03
484, 3996500, -3.5788075e-16, 279696.03
485, 4002500, -3.7287461e-16, 277433.12
486, 4005500, -3.7359332e-16, 276306.05
487, 4008500, -3.7429875e-16, 275181.98
488, 4014500, -3.8726987e-16, 272942.52
489, 4020500, -3.9921471e-16, 270755.59
490, 4023500, -3.9977641e-16, 269666.49
491, 4026500, -4.0031863e-16, 268580.39
492, 4032500, -4.0265685e-16, 266416.82
493, 4038500, -4.0487264e-16, 264265.28
494, 4041500, -4.0534333e-16, 263193.87
495, 4044500, -4.0579709e-16, 262125.45
496, 4050500, -4.0781862e-16, 259997.23
497, 4056500, -4.0970841e-16, 257881.03
498, 4059500, -4.100884e-16, 256827.27
499, 4062500, -4.1045294e-16, 255776.51
500, 4068500, -4.1210935e-16, 253683.58
501, 4074500, -4.1367486e-16, 251602.65
502, 4077500, -4.1395367e-16, 250567.48
503, 4080500, -4.1421348e-16, 249535.3
504, 4086500, -4.1549253e-16, 247479.51
505, 4092500, -4.1666921e-16, 245435.7
506, 4095500, -4.1683689e-16, 244418.13
507, 4098500, -4.1699007e-16, 243403.54
508, 4104500, -4.1789009e-16, 241382.93
509, 4110500, -4.1865021e-16, 239374.28
510, 4113500, -4.1871044e-16, 238374.28
511, 4116500, -4.187572e-16, 237377.26
512, 4122500, -4.1924037e-16, 235391.77
513, 4128500, -4.1959094e-16, 233418.22
514, 4131500, -4.1953441e-16, 232435.77
515, 4134500, -4.1945575e-16, 231456.29
516, 4140500, -4.1949706e-16, 229507.77
517, 4146500, -4.1936778e-16, 227571.18
518, 4149500, -4.1917648e-16, 226607.2
519, 4152500, -4.1896792e-16, 225646.18
520, 4158500, -4.185436e-16, 223732.67
521, 4164500, -4.1790594e-16, 221831.07
522, 4167500, -4.1758522e-16, 220884.58
523, 4170500, -4.1723981e-16, 219941.05
524, 4176500, -4.1638362e-16, 218062.5
525, 4182500, -4.1541794e-16, 216195.84
526, 4185500, -4.1495697e-16, 215266.82
527, 4188500, -4.1447175e-16, 214340.75
528, 4194500, -4.1327192e-16, 212497.11
529, 4200500, -4.1150584e-16, 210705.8
530, 4203500, -4.1070887e-16, 209814.44
531, 4206500, -4.0988847e-16, 208926.02
532, 4212500, -4.078756e-16, 207157.66
533, 4218500, -4.0572836e-16, 205401.13
534, 4221500, -4.0476958e-16, 204527.16
535, 4224500, -4.0376511e-16, 203656.12
536, 4230500, -4.0134027e-16, 201922.52
537, 4236500, -3.9878468e-16, 200200.72
538, 4239500, -3.9763905e-16, 199344.11
539, 4242500, -3.9646381e-16, 198490.44
540, 4248500, -3.9390253e-16, 196791.53
541, 4254500, -3.9120433e-16, 195104.43
542, 4257500, -3.8985595e-16, 194266.11
543, 4260500, -3.8847705e-16, 193430.72
544, 4266500, -3.8549548e-16, 191768.37
545, 4272500, -3.8238359e-16, 190117.81
546, 4275500, -3.808443e-16, 189296.8
547, 4278500, -3.7926553e-16, 188478.72
548, 4284500, -3.7600016e-16, 186850.99
549, 4290500, -3.7261436e-16, 185235.02
550, 4293500, -3.7086394e-16, 184431.31
551, 4296500, -3.6907132e-16, 183630.52
552, 4302500, -3.6546837e-16, 182037.35
553, 4308500, -3.6186191e-16, 180455.93
554, 4311500, -3.5989485e-16, 179669.48
555, 4314500, -3.5787521e-16, 178885.96
556, 4320500, -3.5401014e-16, 177329.21
557, 4326500, -3.5000134e-16, 175784.2
558, 4329500, -3.4777924e-16, 175015.96
559, 4332500, -3.4552276e-16, 174250.63
560, 4338500, -3.412138e-16, 172728.36
561, 4344500, -3.3676369e-16, 171217.81
562, 4347500, -3.3429658e-16, 170466.79
563, 4350500, -3.3178941e-16, 169718.69
564, 4356500, -3.2694929e-16, 168230.85
565, 4362500, -3.2184719e-16, 166754.73
566, 4365500, -3.1913009e-16, 166020.91
567, 4368500, -3.163692e-16, 165290.01
568, 4374500, -3.1071174e-16, 163836.63
569, 4380500, -3.0420444e-16, 162435.41
570, 4383500, -3.0088977e-16, 161739.01
571, 4386500, -2.97514e-16, 161045.51
572, 4392500, -2.9063238e-16, 159666.92
573, 4398500, -2.8356016e-16, 158299.99
574, 4401500, -2.7994503e-16, 157620.73
575, 4404500, -2.7628627e-16, 156944.37
576, 4410500, -2.6878516e-16, 155600.05
577, 4416500, -2.6109382e-16, 154267.39
578, 4419500, -2.5718413e-16, 153605.25
579, 4422500, -2.5320123e-16, 152946.01
580, 4428500, -2.4511119e-16, 151635.93
581, 4434500, -2.3679448e-16, 150337.48
582, 4437500, -2.3253938e-16, 149693.41
583, 4440500, -2.2823729e-16, 149052.22
584, 4446500, -2.1944612e-16, 147778.23
585, 4452500, -2.1042986e-16, 146515.88
586, 4455500, -2.0584049e-16, 145888.89
587, 4458500, -2.012058e-16, 145264.79
588, 4464500, -1.9173132e-16, 144024.96
589, 4470500, -1.8201864e-16, 142796.76
590, 4473500, -1.7708409e-16, 142186.84
591, 4476500, -1.7209031e-16, 141579.81
592, 4482500, -1.6192845e-16, 140374.11
593, 4488500, -1.5152853e-16, 139180.01
594, 4491500, -1.4623862e-16, 138587.15
595, 4494500, -1.4088747e-16, 137997.17
596, 4500500, -1.2995829e-16, 136827.46
597, 4506500, -1.1876583e-16, 135669.36
598, 4509500, -1.1308671e-16, 135094.48
599, 4512500, -1.0733364e-16, 134522.49
600, 4518500, -9.5638473e-17, 133386.84
601, 4524500, -8.3699599e-17, 132262.79
602, 4527500, -7.7628215e-17, 131704.93
603, 4530500, -7.1492449e-17, 131149.95
604, 4536500, -5.9021081e-17, 130048.33
605, 4542500, -4.6273572e-17, 128958.3
606, 4550000, -1.4530511e-17, 127656.4
607, 4554000, -3.525656e-18, 126968.5
608, 4555276, 0, 126750
609, 4556000, -3.067458e-19, 126566.39
610, 4561000, -2.411231e-18, 125302.44
611, 4566000, -4.5283293e-18, 124045.58
612, 4569000, -5.5869409e-18, 123313.45
613, 4575000, -7.7224997e-18, 121857.64
614, 4581000, -9.9043604e-18, 120413.53
615, 4584000, -1.1013322e-17, 119695.68
616, 4587000, -1.2125856e-17, 118980.74
617, 4593000, -1.4377943e-17, 117559.29
618, 4599000, -1.6667301e-17, 116149.51
619, 4602000, -1.7824761e-17, 115448.84
620, 4605000, -1.8988617e-17, 114751.06
621, 4611000, -2.1333635e-17, 113365.83
622, 4617000, -2.3706356e-17, 111992.26
623, 4620000, -2.4905563e-17, 111309.68
624, 4623000, -2.6115195e-17, 110630
625, 4629000, -2.8538882e-17, 109279.05
626, 4635000, -3.0977436e-17, 107939.75
627, 4638000, -3.2216454e-17, 107274.3
628, 4641000, -3.3451435e-17, 106611.74
629, 4647000, -3.5939901e-17, 105295.03
630, 4653000, -3.8434543e-17, 103989.96
631, 4656000, -3.9690945e-17, 103341.61
632, 4659000, -4.0952726e-17, 102696.17
633, 4662009.3, -4.2218795e-17, 102051.66
634, 4665000, -4.3479127e-17, 101414.6
635, 4671000, -4.6014592e-17, 100145.63
636, 4674000, -4.7288359e-17, 99515.33
637, 4677000, -4.8561877e-17, 98887.922
638, 4683000, -5.1120025e-17, 97641.48
639, 4689000, -5.3666698e-17, 96406.662
640, 4692000, -5.4938937e-17, 95793.437
641, 4695000, -5.6218688e-17, 95183.1
642, 4701000, -5.8771238e-17, 93970.792
643, 4707000, -6.1316178e-17, 92770.095
644, 4710000, -6.2584529e-17, 92173.927
645, 4713000, -6.3853192e-17, 91580.644
646, 4719000, -6.6389071e-17, 90402.435
647, 4725000, -6.8854726e-17, 89276.292
648, 4728000, -7.0083214e-17, 88717.393
649, 4731000, -7.1302988e-17, 88161.372
650, 4737000, -7.373324e-17, 87057.671
651, 4743000, -7.6130136e-17, 85965.548
652, 4746000, -7.7319847e-17, 85423.655
653, 4749000, -7.8505137e-17, 84884.638
654, 4755000, -8.084963e-17, 83814.936
655, 4761000, -8.3145014e-17, 82756.803
656, 4764000, -8.4290465e-17, 82231.901
657, 4767000, -8.5422858e-17, 81709.872
658, 4773000, -8.765588e-17, 80674.141
659, 4776009.3, -8.8764553e-17, 80159.212
660, 4779000, -8.985271e-17, 79650.918
661, 4782000, -9.0933108e-17, 79143.944
662, 4785000, -9.2000683e-17, 78639.842
663, 4791000, -9.4097894e-17, 77639.955
664, 4797000, -9.6150721e-17, 76651.618
665, 4800000, -9.7157076e-17, 76161.606
666, 4803000, -9.815607e-17, 75674.464
667, 4809000, -1.0000725e-16, 74708.429
668, 4815000, -1.0180183e-16, 73753.935
669, 4818000, -1.0272587e-16, 73280.871
670, 4821000, -1.0363232e-16, 72810.675
671, 4827000, -1.0533829e-16, 71878.528
672, 4833000, -1.0699898e-16, 70957.912
673, 4836000, -1.0782002e-16, 70502.736
674, 4839000, -1.0862403e-16, 70050.425
675, 4845000, -1.1015939e-16, 69154.043
676, 4851000, -1.115782e-16, 68269.183
677, 4854000, -1.1228968e-16, 67830.93
678, 4857000, -1.1298785e-16, 67395.539
679, 4863000, -1.1422793e-16, 66532.992
680, 4869000, -1.1525725e-16, 65681.96
681, 4872000, -1.1585086e-16, 65260.617
682, 4875000, -1.1642698e-16, 64842.135
683, 4881000, -1.1729902e-16, 64013.4
684, 4887000, -1.1808672e-16, 63196.172
685, 4890000, -1.1854828e-16, 62791.728
686, 4893000, -1.1881822e-16, 62410.377
687, 4899000, -1.1849912e-16, 61655.896
688, 4905000, -1.18067e-16, 60912.907
689, 4908000, -1.1819926e-16, 60545.574
690, 4911000, -1.1830013e-16, 60181.096
691, 4917000, -1.176151e-16, 59460.358
692, 4923000, -1.1682043e-16, 58751.105
693, 4926000, -1.1678357e-16, 58400.637
694, 4929000, -1.167099e-16, 58053.022
695, 4935000, -1.1565836e-16, 57366.007
696, 4941000, -1.1446776e-16, 56690.47
697, 4944000, -1.1424122e-16, 56356.857
698, 4947000, -1.1398684e-16, 56026.096
699, 4953000, -1.1004897e-16, 55374.689
700, 4959000, -1.0592509e-16, 54734.754
701, 4962000, -1.0549203e-16, 54418.938
702, 4965000, -1.0502855e-16, 54105.973
703, 4971000, -1.0054575e-16, 53488.251
704, 4977000, -9.5871871e-17, 52881.996
705, 4980000, -9.5229533e-17, 52583.017
706, 4983000, -9.454452e-17, 52286.887
707, 4989000, -8.9548431e-17, 51702.833
708, 4995000, -8.4322493e-17, 51130.241
709, 4998000, -8.3453766e-17, 50848.09
710, 5001000, -8.2547585e-17, 50568.787
711, 5004009.3, -8.1600997e-17, 50291.512
712, 5007000, -8.0615956e-17, 50019.377
713, 5013000, -7.2315069e-17, 49482.336
714, 5016000, -7.1200572e-17, 49217.957
715, 5019000, -7.0047439e-17, 48956.426
716, 5025000, -5.3735473e-17, 48441.565
717, 5031000, -3.6204776e-17, 47938.155
718, 5034000, -3.4841704e-17, 47690.59
719, 5037000, -3.3433172e-17, 47445.87
720, 5043000, -1.429643e-17, 46964.632
721, 5047000, -1.1364544e-17, 46650.322
722, 5051000, -1.1875409e-18, 46365.463
723, 5052184, 0, 46282
724, 5053000, -7.4884775e-21, 45896.02
725, 5056000, -7.7903393e-21, 44478.699
726, 5057392, 0, 43822
727, 5058000, -8.867183e-20, 43372.145
728, 5086386, 0, 22510
729, 1545595, 0, 326522
730, 3826405, 0, 326520
1001, 831091, 0, 44310
1002, 880000, 0, 67552.701
1003, 881886, 0, 68461
1004, 883000, 0, 68818.749
1005, 891000, 0, 71396.543
1006, 901000, 0, 74640.231
1007, 911000, 0, 77907.762
1008, 921009.3, 0, 81202.226
1009, 933009.3, 0, 85253.285
1010, 944009.3, 0, 88997.039
1011, 955009.3, 0, 92769.782
1012, 966009.3, 0, 96571.539
1013, 978009.3, 0, 100752.03
1014, 990009.3, 0, 105036.95
1015, 1001009.3, 0, 108995.26
1016, 1012009.3, 0, 112982.73
1017, 1023009.3, 0, 116999.4
1018, 1035009.3, 0, 121414.54
1019, 1047009.3, 0, 125947.56
1020, 1058009.3, 0, 130133.5
1021, 1069009.3, 0, 134348.81
1022, 1080009.3, 0, 138593.5
1023, 1092009.3, 0, 143257.63
1024, 1104009.3, 0, 148026.64
1025, 1115009.3, 0, 152429.12
1026, 1126009.3, 0, 156861.15
1027, 1137009.3, 0, 161322.77
1028, 1149009.3, 0, 166223.77
1029, 1161009.3, 0, 171229.9
1030, 1172009.3, 0, 175849.94
1031, 1183009.3, 0, 180499.75
1032, 1194009.3, 0, 185179.35
1033, 1206009.3, 0, 190318.38
1034, 1218009.3, 0, 195576.03
1035, 1229009.3, 0, 200426.87
1036, 1240009.3, 0, 205307.7
1037, 1251009.3, 0, 210218.55
1038, 1263009.3, 0, 215610.12
1039, 1275009.3, 0, 221107.36
1040, 1286009.3, 0, 226178.05
1041, 1297009.3, 0, 231278.95
1042, 1308009.3, 0, 236410.11
1043, 1320009.3, 0, 242042.41
1044, 1332009.3, 0, 247780.64
1045, 1343009.3, 0, 253072.49
1046, 1354009.3, 0, 258394.79
1047, 1365009.3, 0, 263747.58
1048, 1377009.3, 0, 269621.78
1049, 1389009.3, 0, 275615.42
1050, 1400009.3, 0, 281141.67
1051, 1411009.3, 0, 286698.63
1052, 1422009.3, 0, 292286.33
1053, 1434009.3, 0, 298417.1
1054, 1446009.3, 0, 304654.4
1055, 1457009.3, 0, 310404.26
1056, 1468009.3, 0, 316185.09
1057, 1479009.3, 0, 321996.91
1058, 1491009.3, 0, 328372.47
1059, 1501000, 0, 333766.88
1060, 1511000, 0, 339192.06
1061, 1521000, 0, 344643.04
1062, 1530000, 0, 349571.01
1063, 1531350, 0, 350312
1064, 1532000, 0, 350311.7
1065, 1535000, 0, 350311.59
1066, 1536000, 0, 350312
1067, 1537000, 0, 349918.22
1068, 1548000, 0, 345602.75
1069, 1558000, 0, 341705.15
1070, 1568000, 0, 337831.87
1071, 1578000, 0, 333982.89
1072, 1588000, 0, 330158.2
1073, 1600000, 0, 325600.59
1074, 1612000, 0, 321147.67
1075, 1623000, 0, 317096.4
1076, 1634000, 0, 313074.35
1077, 1645000, 0, 309081.5
1078, 1657000, 0, 304758.93
1079, 1669000, 0, 300540.82
1080, 1680000, 0, 296704.61
1081, 1691000, 0, 292897.45
1082, 1702000, 0, 289119.3
1083, 1714009.3, 0, 285027.59
1084, 1726009.3, 0, 281056.54
1085, 1737009.3, 0, 277446.62
1086, 1748009.3, 0, 273865.55
1087, 1759009.3, 0, 270313.32
1088, 1771009.3, 0, 266471.03
1089, 1783009.3, 0, 262732.79
1090, 1794009.3, 0, 259336.1
1091, 1805009.3, 0, 255968.11
1092, 1816009.3, 0, 252628.8
1093, 1828009.3, 0, 249018.6
1094, 1840009.3, 0, 245512.27
1095, 1851009.3, 0, 242328.01
1096, 1862009.3, 0, 239172.29
1097, 1873009.3, 0, 236045.11
1098, 1885009.3, 0, 232666.15
1099, 1897009.3, 0, 229404.11
1100, 1908009.3, 0, 226443.62
1101, 1919009.3, 0, 223511.53
1102, 1930009.3, 0, 220607.82
1103, 1942009.3, 0, 217472.49
1104, 1954009.3, 0, 214440.69
1105, 1965009.3, 0, 211691.1
1106, 1976009.3, 0, 208969.79
1107, 1987009.3, 0, 206276.74
1108, 1999009.3, 0, 203371.06
1109, 2011009.3, 0, 200568.76
1110, 2022009.3, 0, 198029.43
1111, 2033009.3, 0, 195518.25
1112, 2044009.3, 0, 193035.2
1113, 2056009.3, 0, 190358.49
1114, 2068009.3, 0, 187798.23
1115, 2079009.3, 0, 185480.66
1116, 2090009.3, 0, 183191.11
1117, 2101009.3, 0, 180929.58
1118, 2113009.3, 0, 178494.39
1119, 2125009.3, 0, 176162.3
1120, 2136009.3, 0, 174053.77
1121, 2147009.3, 0, 171973.17
1122, 2158009.3, 0, 169920.48
1123, 2170009.3, 0, 167713.01
1124, 2182009.3, 0, 165608.53
1125, 2193009.3, 0, 163708.53
1126, 2204009.3, 0, 161836.37
1127, 2215009.3, 0, 159992.04
1128, 2227009.3, 0, 158011.76
1129, 2236009.3, 0, 156610.54
1130, 2247009.3, 0, 154923.17
1131, 2258009.3, 0, 153263.55
1132, 2269009.3, 0, 151631.67
1133, 2278009.3, 0, 150317.12
1134, 2287009.3, 0, 149073.49
1135, 2298009.3, 0, 147578.67
1136, 2309009.3, 0, 146111.54
1137, 2320009.3, 0, 144672.08
1138, 2329009.3, 0, 143514.91
1139, 2338009.3, 0, 142428.62
1140, 2348342.6, 0, 141204.21
1141, 2358676, 0, 140004.17
1142, 2369009.3, 0, 138828.51
1143, 2378009.3, 0, 137824.4
1144, 2387009.3, 0, 136901.04
1145, 2398009.3, 0, 135797.55
1146, 2409009.3, 0, 134721.64
1147, 2420009.3, 0, 133673.3
1148, 2429009.3, 0, 132836.06
1149, 2438009.3, 0, 132069.62
1150, 2449009.3, 0, 131157.89
1151, 2460009.3, 0, 130273.7
1152, 2471009.3, 0, 129417.02
1153, 2480009.3, 0, 128736.57
1154, 2491009.3, 0, 127993.91
1155, 2502009.3, 0, 127278.75
1156, 2513009.3, 0, 126591.09
1157, 2524009.3, 0, 125930.91
1158, 2535008.5, 0, 125298.27
1159, 2544009.3, 0, 124863.28
1160, 2555009.3, 0, 124356.56
1161, 2566009.3, 0, 123877.31
1162, 2577009.3, 0, 123425.52
1163, 2586008.5, 0, 123076.32
1164, 2595009.3, 0, 122797.83
1165, 2606009.3, 0, 122482.44
1166, 2617009.3, 0, 122194.51
1167, 2628009.3, 0, 121934.04
1168, 2637008.5, 0, 121741.34
1169, 2646009.3, 0, 121619.37
1170, 2656342.6, 0, 121502
1171, 2666676, 0, 121408.85
1172, 2677009.3, 0, 121339.92
1173, 2686008.5, 0, 121300
1174, 2695009.3, 0, 121339.98
1175, 2706009.3, 0, 121414.26
1176, 2717009.3, 0, 121515.98
1177, 2728009.3, 0, 121645.14
1178, 2737008.5, 0, 121771.23
1179, 2746009.3, 0, 121968.09
1180, 2757009.3, 0, 122233.62
1181, 2768009.3, 0, 122526.61
1182, 2779009.3, 0, 122847.05
1183, 2788008.5, 0, 123129.64
1184, 2797009.3, 0, 123483.04
1185, 2807342.6, 0, 123911.42
1186, 2817676, 0, 124364.04
1187, 2828009.3, 0, 124840.9
1188, 2837008.5, 0, 125275.85
1189, 2846009.3, 0, 125791.56
1190, 2857009.3, 0, 126446.81
1191, 2868009.3, 0, 127129.54
1192, 2879009.3, 0, 127839.77
1193, 2888008.5, 0, 128441.26
1194, 2897009.3, 0, 129113.63
1195, 2908009.3, 0, 129960.37
1196, 2919009.3, 0, 130834.63
1197, 2930009.3, 0, 131736.42
1198, 2939008.5, 0, 132494.65
1199, 2950009.3, 0, 133510.58
1200, 2961009.3, 0, 134553.98
1201, 2972009.3, 0, 135624.96
1202, 2983009.3, 0, 136723.5
1203, 2994009.3, 0, 137849.62
1204, 3003009.3, 0, 138853.79
1205, 3014009.3, 0, 140106.22
1206, 3025009.3, 0, 141386.26
1207, 3036009.3, 0, 142693.93
1208, 3045009.3, 0, 143784.39
1209, 3054009.3, 0, 144945.73
1210, 3065009.3, 0, 146390.29
1211, 3076009.3, 0, 147862.53
1212, 3087009.3, 0, 149362.45
1213, 3096009.3, 0, 150610.27
1214, 3105009.3, 0, 151928.99
1215, 3115342.6, 0, 153465.98
1216, 3125676, 0, 155027.45
1217, 3136009.3, 0, 156613.41
1218, 3145009.3, 0, 158014.69
1219, 3157009.3, 0, 159995.04
1220, 3168009.3, 0, 161839.44
1221, 3179009.3, 0, 163711.66
1222, 3190009.3, 0, 165611.73
1223, 3202009.3, 0, 167716.28
1224, 3214009.3, 0, 169923.83
1225, 3225009.3, 0, 171976.58
1226, 3236009.3, 0, 174057.25
1227, 3247009.3, 0, 176165.85
1228, 3259009.3, 0, 178498.01
1229, 3261009.3, 0, 178901.57
1230, 3275342.6, 0, 181820.86
1231, 3289676, 0, 184787.7
1232, 3304009.3, 0, 187802.13
1233, 3316009.3, 0, 190362.46
1234, 3328009.3, 0, 193039.24
1235, 3339009.3, 0, 195522.36
1236, 3350009.3, 0, 198033.61
1237, 3361009.3, 0, 200573.01
1238, 3373009.3, 0, 203375.38
1239, 3385009.3, 0, 206281.13
1240, 3396009.3, 0, 208974.26
1241, 3407009.3, 0, 211695.64
1242, 3418009.3, 0, 214445.29
1243, 3430009.3, 0, 217477.17
1244, 3442009.3, 0, 220612.57
1245, 3453009.3, 0, 223516.34
1246, 3464009.3, 0, 226448.5
1247, 3475009.3, 0, 229409.06
1248, 3487009.3, 0, 232671.18
1249, 3499009.3, 0, 236050.21
1250, 3510009.3, 0, 239177.46
1251, 3521009.3, 0, 242333.25
1252, 3532009.3, 0, 245517.58
1253, 3544009.3, 0, 249023.98
1254, 3556009.3, 0, 252634.26
1255, 3567009.3, 0, 255973.63
1256, 3578009.3, 0, 259341.69
1257, 3589009.3, 0, 262738.45
1258, 3601009.3, 0, 266476.77
1259, 3613009.3, 0, 270319.13
1260, 3624009.3, 0, 273871.43
1261, 3635009.3, 0, 277452.57
1262, 3646009.3, 0, 281062.56
1263, 3658009.3, 0, 285033.68
1264, 3670009.3, 0, 289122.28
1265, 3681009.3, 0, 292900.48
1266, 3692009.3, 0, 296707.69
1267, 3703009.3, 0, 300543.94
1268, 3715009.3, 0, 304762.1
1269, 3727009.3, 0, 309084.72
1270, 3738009.3, 0, 313077.61
1271, 3749009.3, 0, 317099.71
1272, 3760009.3, 0, 321151.02
1273, 3772009.3, 0, 325603.99
1274, 3782000, 0, 329396.07
1275, 3792000, 0, 333215.93
1276, 3802000, 0, 337060.07
1277, 3812000, 0, 340928.5
1278, 3822000, 0, 344821.25
1279, 3835000, 0, 349918.22
1280, 3836000, 0, 350312
1281, 3837000, 0, 350311.59
1282, 3840000, 0, 350311.7
1283, 3840650, 0, 350312
1284, 3842000, 0, 349742.44
1285, 3844500, 0, 348688.88
1286, 3854500, 0, 344490.01
1287, 3864500, 0, 340315.72
1288, 3874500, 0, 336165.99
1289, 3884500, 0, 332040.79
1290, 3894509.3, 0, 327936.3
1291, 3906009.3, 0, 323317.68
1292, 3918009.3, 0, 318532.69
1293, 3930009.3, 0, 313782.82
1294, 3942009.3, 0, 309068.04
1295, 3954509.3, 0, 304194.09
1296, 3966009.3, 0, 299810.5
1297, 3978009.3, 0, 295270.51
1298, 3990009.3, 0, 290765.4
1299, 4002009.3, 0, 286295.15
1300, 4014509.3, 0, 281675.67
1301, 4026009.3, 0, 277538.63
1302, 4038009.3, 0, 273255.67
1303, 4050009.3, 0, 269007.37
1304, 4062009.3, 0, 264793.67
1305, 4074509.3, 0, 260441.19
1306, 4086009.3, 0, 256536.89
1307, 4098009.3, 0, 252496.59
1308, 4110009.3, 0, 248490.72
1309, 4122009.3, 0, 244519.26
1310, 4134509.3, 0, 240418.87
1311, 4146009.3, 0, 236746.3
1312, 4158009.3, 0, 232947.61
1313, 4170009.3, 0, 229183.14
1314, 4182009.3, 0, 225452.88
1315, 4194509.3, 0, 221603.53
1316, 4206009.3, 0, 218174.4
1317, 4218009.3, 0, 214629.52
1318, 4230009.3, 0, 211118.68
1319, 4242009.3, 0, 207641.84
1320, 4254509.3, 0, 204056.26
1321, 4266009.3, 0, 200856.95
1322, 4278009.3, 0, 197551.71
1323, 4290009.3, 0, 194280.33
1324, 4302009.3, 0, 191042.77
1325, 4314509.3, 0, 187706.26
1326, 4326009.3, 0, 184735.93
1327, 4338009.3, 0, 181669.46
1328, 4350009.3, 0, 178636.68
1329, 4362009.3, 0, 175637.56
1330, 4374509.3, 0, 172549.26
1331, 4386009.3, 0, 169819.79
1332, 4398009.3, 0, 167004.5
1333, 4410009.3, 0, 164222.74
1334, 4422009.3, 0, 161474.48
1335, 4434509.3, 0, 158647.32
1336, 4446009.3, 0, 156145.29
1337, 4458009.3, 0, 153567.19
1338, 4470009.3, 0, 151022.47
1339, 4482009.3, 0, 148511.12
1340, 4494509.3, 0, 145930.59
1341, 4505000, 0, 143853.8
1342, 4515000, 0, 141897.82
1343, 4525000, 0, 139964.95
1344, 4535000, 0, 138055.16
1345, 4545000, 0, 136168.45
1346, 4554000, 0, 134490.14
1347, 4555026, 0, 134300
1348, 4556000, 0, 134065.22
1349, 4565000, 0, 131906.31
1350, 4575000, 0, 129529.66
1351, 4585000, 0, 127176.31
1352, 4595000, 0, 124846.25
1353, 4605009.3, 0, 122537.32
1354, 4617009.3, 0, 119869.7
1355, 4628009.3, 0, 117453.76
1356, 4639009.3, 0, 115065.9
1357, 4650009.3, 0, 112706.1
1358, 4662009.3, 0, 110163.78
1359, 4674009.3, 0, 107724.61
1360, 4685009.3, 0, 105517.97
1361, 4696009.3, 0, 103339.3
1362, 4707009.3, 0, 101188.6
1363, 4719009.3, 0, 98874.255
1364, 4731009.3, 0, 96676.171
1365, 4742009.3, 0, 94690.415
1366, 4753009.3, 0, 92732.532
1367, 4764009.3, 0, 90802.511
1368, 4776009.3, 0, 88728.795
1369, 4788009.3, 0, 86758.005
1370, 4799009.3, 0, 84980.51
1371, 4810009.3, 0, 83230.801
1372, 4821009.3, 0, 81508.869
1373, 4833009.3, 0, 79662.064
1374, 4845009.3, 0, 77918.087
1375, 4856009.3, 0, 76348.422
1376, 4867009.3, 0, 74806.467
1377, 4878009.3, 0, 73292.212
1378, 4890009.3, 0, 71671.879
1379, 4902009.3, 0, 70167.513
1380, 4913009.3, 0, 68817.414
1381, 4924009.3, 0, 67494.954
1382, 4935009.3, 0, 66200.124
1383, 4947009.3, 0, 64819.086
1384, 4959009.3, 0, 63540.715
1385, 4970009.3, 0, 62397.716
1386, 4981009.3, 0, 61282.3
1387, 4992009.3, 0, 60194.458
1388, 5004009.3, 0, 59039.161
1389, 5015000, 0, 58073.747
1390, 5027000, 0, 57051.073
1391, 5039000, 0, 56061.167
1392, 5050000, 0, 55182.532
1393, 5050962, 0, 55107
1394, 5052000, 0, 54818.826
1395, 5101700, 0, 41317
*ELEMENT, TYPE=T3D2, ELSET=E_CABLE
1, 1, 2
2, 2, 3
3, 3, 4
4, 4, 5
5, 5, 6
6, 6, 7
7, 7, 8
8, 8, 9
9, 9, 10
10, 10, 11
11, 11, 12
12, 12, 13
13, 13, 14
14, 14, 15
15, 15, 16
16, 16, 17
17, 17, 18
18, 18, 19
19, 19, 20
20, 20, 21
21, 21, 22
22, 22, 23
23, 23, 24
24, 24, 25
25, 25, 26
26, 26, 27
27, 27, 28
28, 28, 29
29, 29, 30
30, 30, 31
31, 31, 32
32, 32, 33
33, 33, 34
34, 34, 35
35, 35, 36
36, 36, 37
37, 37, 38
38, 38, 39
39, 39, 40
40, 40, 41
41, 41, 42
42, 42, 43
43, 43, 44
44, 44, 45
45, 45, 46
46, 46, 47
47, 47, 48
48, 48, 49
49, 49, 50
50, 50, 51
51, 51, 52
52, 52, 53
53, 53, 54
54, 54, 55
55, 55, 56
56, 56, 57
57, 57, 58
58, 58, 59
59, 59, 60
60, 60, 61
61, 61, 62
62, 62, 63
63, 63, 64
64, 64, 65
65, 65, 66
66, 66, 67
67, 67, 68
68, 68, 69
69, 69, 70
70, 70, 71
71, 71, 72
72, 72, 73
73, 73, 74
74, 74, 75
75, 75, 76
76, 76, 77
77, 77, 78
78, 78, 79
79, 79, 80
80, 80, 81
81, 81, 82
82, 82, 83
83, 83, 84
84, 84, 85
85, 85, 86
86, 86, 87
87, 87, 88
88, 88, 89
89, 89, 90
90, 90, 91
91, 91, 92
92, 92, 93
93, 93, 94
94, 94, 95
95, 95, 96
96, 96, 97
97, 97, 98
98, 98, 99
99, 99, 100
100, 100, 101
101, 101, 102
102, 102, 103
103, 103, 104
104, 104, 105
105, 105, 106
106, 106, 107
107, 107, 108
108, 108, 109
109, 109, 110
110, 110, 111
111, 111, 112
112, 112, 113
113, 113, 114
114, 114, 115
115, 115, 116
116, 116, 117
117, 117, 118
118, 118, 119
119, 119, 120
120, 120, 121
121, 121, 122
122, 122, 123
123, 123, 124
124, 124, 125
125, 125, 126
126, 126, 127
127, 127, 128
128, 128, 129
129, 129, 130
130, 130, 131
131, 131, 132
132, 132, 133
133, 133, 134
134, 134, 135
135, 135, 136
136, 136, 137
137, 137, 138
138, 138, 139
139, 139, 140
140, 140, 141
141, 141, 142
142, 142, 143
143, 143, 144
144, 144, 145
145, 145, 146
146, 146, 147
147, 147, 148
148, 148, 149
149, 149, 150
150, 150, 151
151, 151, 152
152, 152, 153
153, 153, 154
154, 154, 155
155, 155, 156
156, 156, 157
157, 157, 158
158, 158, 159
159, 159, 160
160, 160, 161
161, 161, 162
162, 162, 163
163, 163, 164
164, 164, 165
165, 165, 166
166, 166, 167
167, 167, 168
168, 168, 169
169, 169, 170
170, 170, 171
171, 171, 172
172, 172, 173
173, 173, 174
174, 174, 175
175, 175, 176
176, 176, 177
177, 177, 178
178, 178, 179
179, 179, 180
180, 180, 181
181, 181, 182
182, 182, 183
183, 183, 184
184, 184, 185
185, 185, 186
186, 186, 187
187, 187, 188
188, 188, 189
189, 189, 190
190, 190, 191
191, 191, 192
192, 192, 193
193, 193, 194
194, 194, 195
195, 195, 196
196, 196, 197
197, 197, 198
198, 198, 199
199, 199, 200
200, 200, 201
201, 201, 202
202, 202, 203
203, 203, 204
204, 204, 205
205, 205, 206
206, 206, 207
207, 207, 208
208, 208, 209
209, 209, 210
210, 210, 211
211, 211, 212
212, 212, 213
213, 213, 214
214, 214, 215
215, 215, 216
216, 216, 217
217, 217, 218
218, 218, 219
219, 219, 220
220, 220, 221
221, 221, 222
222, 222, 223
223, 223, 224
224, 224, 225
225, 225, 226
226, 226, 227
227, 227, 228
228, 228, 229
229, 229, 230
230, 230, 231
231, 231, 232
232, 232, 233
233, 233, 234
234, 234, 235
235, 235, 236
236, 236, 237
237, 237, 238
238, 238, 239
239, 239, 240
240, 240, 241
241, 241, 242
242, 242, 243
243, 243, 244
244, 244, 245
245, 245, 246
246, 246, 247
247, 247, 248
248, 248, 249
249, 249, 250
250, 250, 251
251, 251, 252
252, 252, 253
253, 253, 254
254, 254, 255
255, 255, 256
256, 256, 257
257, 257, 258
258, 258, 259
259, 259, 260
260, 260, 261
261, 261, 262
262, 262, 263
263, 263, 264
264, 264, 265
265, 265, 266
266, 266, 267
267, 267, 268
268, 268, 269
269, 269, 270
270, 270, 271
271, 271, 272
272, 272, 273
273, 273, 274
274, 274, 275
275, 275, 276
276, 276, 277
277, 277, 278
278, 278, 279
279, 279, 280
280, 280, 281
281, 281, 282
282, 282, 283
283, 283, 284
284, 284, 285
285, 285, 286
286, 286, 287
287, 287, 288
288, 288, 289
289, 289, 290
290, 290, 291
291, 291, 292
292, 292, 293
293, 293, 294
294, 294, 295
295, 295, 296
296, 296, 297
297, 297, 298
298, 298, 299
299, 299, 300
300, 300, 301
301, 301, 302
302, 302, 303
303, 303, 304
304, 304, 305
305, 305, 306
306, 306, 307
307, 307, 308
308, 308, 309
309, 309, 310
310, 310, 311
311, 311, 312
312, 312, 313
313, 313, 314
314, 314, 315
315, 315, 316
316, 316, 317
317, 317, 318
318, 318, 319
319, 319, 320
320, 320, 321
321, 321, 322
322, 322, 323
323, 323, 324
324, 324, 325
325, 325, 326
326, 326, 327
327, 327, 328
328, 328, 329
329, 329, 330
330, 330, 331
331, 331, 332
332, 332, 333
333, 333, 334
334, 334, 335
335, 335, 336
336, 336, 337
337, 337, 338
338, 338, 339
339, 339, 340
340, 340, 341
341, 341, 342
342, 342, 343
343, 343, 344
344, 344, 345
345, 345, 346
346, 346, 347
347, 347, 348
348, 348, 349
349, 349, 350
350, 350, 351
351, 351, 352
352, 352, 353
353, 353, 354
354, 354, 355
355, 355, 356
356, 356, 357
357, 357, 358
358, 358, 359
359, 359, 360
360, 360, 361
361, 361, 362
362, 362, 363
363, 363, 364
364, 364, 365
365, 365, 366
366, 366, 367
367, 367, 368
368, 368, 369
369, 369, 370
370, 370, 371
371, 371, 372
372, 372, 373
373, 373, 374
374, 374, 375
375, 375, 376
376, 376, 377
377, 377, 378
378, 378, 379
379, 379, 380
380, 380, 381
381, 381, 382
382, 382, 383
383, 383, 384
384, 384, 385
385, 385, 386
386, 386, 387
387, 387, 388
388, 388, 389
389, 389, 390
390, 390, 391
391, 391, 392
392, 392, 393
393, 393, 394
394, 394, 395
395, 395, 396
396, 396, 397
397, 397, 398
398, 398, 399
399, 399, 400
400, 400, 401
401, 401, 402
402, 402, 403
403, 403, 404
404, 404, 405
405, 405, 406
406, 406, 407
407, 407, 408
408, 408, 409
409, 409, 410
410, 410, 411
411, 411, 412
412, 412, 413
413, 413, 414
414, 414, 415
415, 415, 416
416, 416, 417
417, 417, 418
418, 418, 419
419, 419, 420
420, 420, 421
421, 421, 422
422, 422, 423
423, 423, 424
424, 424, 425
425, 425, 426
426, 426, 427
427, 427, 428
428, 428, 429
429, 429, 430
430, 430, 431
431, 431, 432
432, 432, 433
433, 433, 434
434, 434, 435
435, 435, 436
436, 436, 437
437, 437, 438
438, 438, 439
439, 439, 440
440, 440, 441
441, 441, 442
442, 442, 443
443, 443, 444
444, 444, 445
445, 445, 446
446, 446, 447
447, 447, 448
448, 448, 449
449, 449, 450
450, 450, 451
451, 451, 452
452, 452, 453
453, 453, 454
454, 454, 455
455, 455, 456
456, 456, 457
457, 457, 458
458, 458, 459
459, 459, 460
460, 460, 461
461, 461, 462
462, 462, 463
463, 463, 464
464, 464, 465
465, 465, 466
466, 466, 467
467, 467, 468
468, 468, 469
469, 469, 470
470, 470, 471
471, 471, 472
472, 472, 473
473, 473, 474
474, 474, 475
475, 475, 476
476, 476, 477
477, 477, 478
478, 478, 479
479, 479, 480
480, 480, 481
481, 481, 482
482, 482, 483
483, 483, 484
484, 484, 485
485, 485, 486
486, 486, 487
487, 487, 488
488, 488, 489
489, 489, 490
490, 490, 491
491, 491, 492
492, 492, 493
493, 493, 494
494, 494, 495
495, 495, 496
496, 496, 497
497, 497, 498
498, 498, 499
499, 499, 500
500, 500, 501
501, 501, 502
502, 502, 503
503, 503, 504
504, 504, 505
505, 505, 506
506, 506, 507
507, 507, 508
508, 508, 509
509, 509, 510
510, 510, 511
511, 511, 512
512, 512, 513
513, 513, 514
514, 514, 515
515, 515, 516
516, 516, 517
517, 517, 518
518, 518, 519
519, 519, 520
520, 520, 521
521, 521, 522
522, 522, 523
523, 523, 524
524, 524, 525
525, 525, 526
526, 526, 527
527, 527, 528
528, 528, 529
529, 529, 530
530, 530, 531
531, 531, 532
532, 532, 533
533, 533, 534
534, 534, 535
535, 535, 536
536, 536, 537
537, 537, 538
538, 538, 539
539, 539, 540
540, 540, 541
541, 541, 542
542, 542, 543
543, 543, 544
544, 544, 545
545, 545, 546
546, 546, 547
547, 547, 548
548, 548, 549
549, 549, 550
550, 550, 551
551, 551, 552
552, 552, 553
553, 553, 554
554, 554, 555
555, 555, 556
556, 556, 557
557, 557, 558
558, 558, 559
559, 559, 560
560, 560, 561
561, 561, 562
562, 562, 563
563, 563, 564
564, 564, 565
565, 565, 566
566, 566, 567
567, 567, 568
568, 568, 569
569, 569, 570
570, 570, 571
571, 571, 572
572, 572, 573
573, 573, 574
574, 574, 575
575, 575, 576
576, 576, 577
577, 577, 578
578, 578, 579
579, 579, 580
580, 580, 581
581, 581, 582
582, 582, 583
583, 583, 584
584, 584, 585
585, 585, 586
586, 586, 587
587, 587, 588
588, 588, 589
589, 589, 590
590, 590, 591
591, 591, 592
592, 592, 593
593, 593, 594
594, 594, 595
595, 595, 596
596, 596, 597
597, 597, 598
598, 598, 599
599, 599, 600
600, 600, 601
601, 601, 602
602, 602, 603
603, 603, 604
604, 604, 605
605, 605, 606
606, 606, 607
607, 607, 608
608, 608, 609
609, 609, 610
610, 610, 611
611, 611, 612
612, 612, 613
613, 613, 614
614, 614, 615
615, 615, 616
616, 616, 617
617, 617, 618
618, 618, 619
619, 619, 620
620, 620, 621
621, 621, 622
622, 622, 623
623, 623, 624
624, 624, 625
625, 625, 626
626, 626, 627
627, 627, 628
628, 628, 629
629, 629, 630
630, 630, 631
631, 631, 632
632, 632, 633
633, 633, 634
634, 634, 635
635, 635, 636
636, 636, 637
637, 637, 638
638, 638, 639
639, 639, 640
640, 640, 641
641, 641, 642
642, 642, 643
643, 643, 644
644, 644, 645
645, 645, 646
646, 646, 647
647, 647, 648
648, 648, 649
649, 649, 650
650, 650, 651
651, 651, 652
652, 652, 653
653, 653, 654
654, 654, 655
655, 655, 656
656, 656, 657
657, 657, 658
658, 658, 659
659, 659, 660
660, 660, 661
661, 661, 662
662, 662, 663
663, 663, 664
664, 664, 665
665, 665, 666
666, 666, 667
667, 667, 668
668, 668, 669
669, 669, 670
670, 670, 671
671, 671, 672
672, 672, 673
673, 673, 674
674, 674, 675
675, 675, 676
676, 676, 677
677, 677, 678
678, 678, 679
679, 679, 680
680, 680, 681
681, 681, 682
682, 682, 683
683, 683, 684
684, 684, 685
685, 685, 686
686, 686, 687
687, 687, 688
688, 688, 689
689, 689, 690
690, 690, 691
691, 691, 692
692, 692, 693
693, 693, 694
694, 694, 695
695, 695, 696
696, 696, 697
697, 697, 698
698, 698, 699
699, 699, 700
700, 700, 701
701, 701, 702
702, 702, 703
703, 703, 704
704, 704, 705
705, 705, 706
706, 706, 707
707, 707, 708
708, 708, 709
709, 709, 710
710, 710, 711
711, 711, 712
712, 712, 713
713, 713, 714
714, 714, 715
715, 715, 716
716, 716, 717
717, 717, 718
718, 718, 719
719, 719, 720
720, 720, 721
721, 721, 722
722, 722, 723
723, 723, 724
724, 724, 725
725, 725, 726
726, 726, 727
727, 727, 728
728, 729, 160
729, 444, 730
1001, 1001, 1002
1002, 1002, 1003
1003, 1003, 1004
1004, 1004, 1005
1005, 1005, 1006
1006, 1006, 1007
1007, 1007, 1008
1008, 1008, 1009
1009, 1009, 1010
1010, 1010, 1011
1011, 1011, 1012
1012, 1012, 1013
1013, 1013, 1014
1014, 1014, 1015
1015, 1015, 1016
1016, 1016, 1017
1017, 1017, 1018
1018, 1018, 1019
1019, 1019, 1020
1020, 1020, 1021
1021, 1021, 1022
1022, 1022, 1023
1023, 1023, 1024
1024, 1024, 1025
1025, 1025, 1026
1026, 1026, 1027
1027, 1027, 1028
1028, 1028, 1029
1029, 1029, 1030
1030, 1030, 1031
1031, 1031, 1032
1032, 1032, 1033
1033, 1033, 1034
1034, 1034, 1035
1035, 1035, 1036
1036, 1036, 1037
1037, 1037, 1038
1038, 1038, 1039
1039, 1039, 1040
1040, 1040, 1041
1041, 1041, 1042
1042, 1042, 1043
1043, 1043, 1044
1044, 1044, 1045
1045, 1045, 1046
1046, 1046, 1047
1047, 1047, 1048
1048, 1048, 1049
1049, 1049, 1050
1050, 1050, 1051
1051, 1051, 1052
1052, 1052, 1053
1053, 1053, 1054
1054, 1054, 1055
1055, 1055, 1056
1056, 1056, 1057
1057, 1057, 1058
1058, 1058, 1059
1059, 1059, 1060
1060, 1060, 1061
1061, 1061, 1062
1062, 1062, 1063
1063, 1063, 1064
1064, 1064, 1065
1065, 1065, 1066
1066, 1066, 1067
1067, 1067, 1068
1068, 1068, 1069
1069, 1069, 1070
1070, 1070, 1071
1071, 1071, 1072
1072, 1072, 1073
1073, 1073, 1074
1074, 1074, 1075
1075, 1075, 1076
1076, 1076, 1077
1077, 1077, 1078
1078, 1078, 1079
1079, 1079, 1080
1080, 1080, 1081
1081, 1081, 1082
1082, 1082, 1083
1083, 1083, 1084
1084, 1084, 1085
1085, 1085, 1086
1086, 1086, 1087
1087, 1087, 1088
1088, 1088, 1089
1089, 1089, 1090
1090, 1090, 1091
1091, 1091, 1092
1092, 1092, 1093
1093, 1093, 1094
1094, 1094, 1095
1095, 1095, 1096
1096, 1096, 1097
1097, 1097, 1098
1098, 1098, 1099
1099, 1099, 1100
1100, 1100, 1101
1101, 1101, 1102
1102, 1102, 1103
1103, 1103, 1104
1104, 1104, 1105
1105, 1105, 1106
1106, 1106, 1107
1107, 1107, 1108
1108, 1108, 1109
1109, 1109, 1110
1110, 1110, 1111
1111, 1111, 1112
1112, 1112, 1113
1113, 1113, 1114
1114, 1114, 1115
1115, 1115, 1116
1116, 1116, 1117
1117, 1117, 1118
1118, 1118, 1119
1119, 1119, 1120
1120, 1120, 1121
1121, 1121, 1122
1122, 1122, 1123
1123, 1123, 1124
1124, 1124, 1125
1125, 1125, 1126
1126, 1126, 1127
1127, 1127, 1128
1128, 1128, 1129
1129, 1129, 1130
1130, 1130, 1131
1131, 1131, 1132
1132, 1132, 1133
1133, 1133, 1134
1134, 1134, 1135
1135, 1135, 1136
1136, 1136, 1137
1137, 1137, 1138
1138, 1138, 1139
1139, 1139, 1140
1140, 1140, 1141
1141, 1141, 1142
1142, 1142, 1143
1143, 1143, 1144
1144, 1144, 1145
1145, 1145, 1146
1146, 1146, 1147
1147, 1147, 1148
1148, 1148, 1149
1149, 1149, 1150
1150, 1150, 1151
1151, 1151, 1152
1152, 1152, 1153
1153, 1153, 1154
1154, 1154, 1155
1155, 1155, 1156
1156, 1156, 1157
1157, 1157, 1158
1158, 1158, 1159
1159, 1159, 1160
1160, 1160, 1161
1161, 1161, 1162
1162, 1162, 1163
1163, 1163, 1164
1164, 1164, 1165
1165, 1165, 1166
1166, 1166, 1167
1167, 1167, 1168
1168, 1168, 1169
1169, 1169, 1170
1170, 1170, 1171
1171, 1171, 1172
1172, 1172, 1173
1173, 1173, 1174
1174, 1174, 1175
1175, 1175, 1176
1176, 1176, 1177
1177, 1177, 1178
1178, 1178, 1179
1179, 1179, 1180
1180, 1180, 1181
1181, 1181, 1182
1182, 1182, 1183
1183, 1183, 1184
1184, 1184, 1185
1185, 1185, 1186
1186, 1186, 1187
1187, 1187, 1188
1188, 1188, 1189
1189, 1189, 1190
1190, 1190, 1191
1191, 1191, 1192
1192, 1192, 1193
1193, 1193, 1194
1194, 1194, 1195
1195, 1195, 1196
1196, 1196, 1197
1197, 1197, 1198
1198, 1198, 1199
1199, 1199, 1200
1200, 1200, 1201
1201, 1201, 1202
1202, 1202, 1203
1203, 1203, 1204
1204, 1204, 1205
1205, 1205, 1206
1206, 1206, 1207
1207, 1207, 1208
1208, 1208, 1209
1209, 1209, 1210
1210, 1210, 1211
1211, 1211, 1212
1212, 1212, 1213
1213, 1213, 1214
1214, 1214, 1215
1215, 1215, 1216
1216, 1216, 1217
1217, 1217, 1218
1218, 1218, 1219
1219, 1219, 1220
1220, 1220, 1221
1221, 1221, 1222
1222, 1222, 1223
1223, 1223, 1224
1224, 1224, 1225
1225, 1225, 1226
1226, 1226, 1227
1227, 1227, 1228
1228, 1228, 1229
1229, 1229, 1230
1230, 1230, 1231
1231, 1231, 1232
1232, 1232, 1233
1233, 1233, 1234
1234, 1234, 1235
1235, 1235, 1236
1236, 1236, 1237
1237, 1237, 1238
1238, 1238, 1239
1239, 1239, 1240
1240, 1240, 1241
1241, 1241, 1242
1242, 1242, 1243
1243, 1243, 1244
1244, 1244, 1245
1245, 1245, 1246
1246, 1246, 1247
1247, 1247, 1248
1248, 1248, 1249
1249, 1249, 1250
1250, 1250, 1251
1251, 1251, 1252
1252, 1252, 1253
1253, 1253, 1254
1254, 1254, 1255
1255, 1255, 1256
1256, 1256, 1257
1257, 1257, 1258
1258, 1258, 1259
1259, 1259, 1260
1260, 1260, 1261
1261, 1261, 1262
1262, 1262, 1263
1263, 1263, 1264
1264, 1264, 1265
1265, 1265, 1266
1266, 1266, 1267
1267, 1267, 1268
1268, 1268, 1269
1269, 1269, 1270
1270, 1270, 1271
1271, 1271, 1272
1272, 1272, 1273
1273, 1273, 1274
1274, 1274, 1275
1275, 1275, 1276
1276, 1276, 1277
1277, 1277, 1278
1278, 1278, 1279
1279, 1279, 1280
1280, 1280, 1281
1281, 1281, 1282
1282, 1282, 1283
1283, 1283, 1284
1284, 1284, 1285
1285, 1285, 1286
1286, 1286, 1287
1287, 1287, 1288
1288, 1288, 1289
1289, 1289, 1290
1290, 1290, 1291
1291, 1291, 1292
1292, 1292, 1293
1293, 1293, 1294
1294, 1294, 1295
1295, 1295, 1296
1296, 1296, 1297
1297, 1297, 1298
1298, 1298, 1299
1299, 1299, 1300
1300, 1300, 1301
1301, 1301, 1302
1302, 1302, 1303
1303, 1303, 1304
1304, 1304, 1305
1305, 1305, 1306
1306, 1306, 1307
1307, 1307, 1308
1308, 1308, 1309
1309, 1309, 1310
1310, 1310, 1311
1311, 1311, 1312
1312, 1312, 1313
1313, 1313, 1314
1314, 1314, 1315
1315, 1315, 1316
1316, 1316, 1317
1317, 1317, 1318
1318, 1318, 1319
1319, 1319, 1320
1320, 1320, 1321
1321, 1321, 1322
1322, 1322, 1323
1323, 1323, 1324
1324, 1324, 1325
1325, 1325, 1326
1326, 1326, 1327
1327, 1327, 1328
1328, 1328, 1329
1329, 1329, 1330
1330, 1330, 1331
1331, 1331, 1332
1332, 1332, 1333
1333, 1333, 1334
1334, 1334, 1335
1335, 1335, 1336
1336, 1336, 1337
1337, 1337, 1338
1338, 1338, 1339
1339, 1339, 1340
1340, 1340, 1341
1341, 1341, 1342
1342, 1342, 1343
1343, 1343, 1344
1344, 1344, 1345
1345, 1345, 1346
1346, 1346, 1347
1347, 1347, 1348
1348, 1348, 1349
1349, 1349, 1350
1350, 1350, 1351
1351, 1351, 1352
1352, 1352, 1353
1353, 1353, 1354
1354, 1354, 1355
1355, 1355, 1356
1356, 1356, 1357
1357, 1357, 1358
1358, 1358, 1359
1359, 1359, 1360
1360, 1360, 1361
1361, 1361, 1362
1362, 1362, 1363
1363, 1363, 1364
1364, 1364, 1365
1365, 1365, 1366
1366, 1366, 1367
1367, 1367, 1368
1368, 1368, 1369
1369, 1369, 1370
1370, 1370, 1371
1371, 1371, 1372
1372, 1372, 1373
1373, 1373, 1374
1374, 1374, 1375
1375, 1375, 1376
1376, 1376, 1377
1377, 1377, 1378
1378, 1378, 1379
1379, 1379, 1380
1380, 1380, 1381
1381, 1381, 1382
1382, 1382, 1383
1383, 1383, 1384
1384, 1384, 1385
1385, 1385, 1386
1386, 1386, 1387
1387, 1387, 1388
1388, 1388, 1389
1389, 1389, 1390
1390, 1390, 1391
1391, 1391, 1392
1392, 1392, 1393
1393, 1393, 1394
1394, 1394, 1395
*ELEMENT, TYPE=B31, ELSET=E_FRAME
1395, 1008, 16
1396, 1013, 29
1397, 1018, 42
1398, 1023, 55
1399, 1028, 68
1400, 1033, 81
1401, 1038, 94
1402, 1043, 107
1403, 1048, 120
1404, 1053, 133
1405, 1058, 146
1406, 1073, 166
1407, 1078, 173
1408, 1083, 180
1409, 1088, 187
1410, 1093, 194
1411, 1098, 201
1412, 1103, 208
1413, 1108, 215
1414, 1113, 222
1415, 1118, 229
1416, 1123, 236
1417, 1128, 243
1418, 1133, 249
1419, 1138, 256
1420, 1143, 262
1421, 1148, 269
1422, 1153, 276
1423, 1158, 283
1424, 1163, 289
1425, 1168, 296
1426, 1173, 302
1427, 1178, 308
1428, 1183, 315
1429, 1188, 321
1430, 1193, 328
1431, 1198, 335
1432, 1203, 342
1433, 1208, 348
1434, 1213, 355
1435, 1218, 361
1436, 1223, 368
1437, 1228, 375
1438, 1233, 382
1439, 1238, 389
1440, 1243, 396
1441, 1248, 403
1442, 1253, 410
1443, 1258, 417
1444, 1263, 424
1445, 1268, 431
1446, 1273, 438
1447, 1290, 461
1448, 1295, 475
1449, 1300, 488
1450, 1305, 501
1451, 1310, 515
1452, 1315, 528
1453, 1320, 541
1454, 1325, 555
1455, 1330, 568
1456, 1335, 581
1457, 1340, 595
1458, 1353, 620
1459, 1358, 633
1460, 1363, 646
1461, 1368, 659
1462, 1373, 672
1463, 1378, 685
1464, 1383, 698
1465, 1388, 711
*ELSET, ELSET=E_SEC1
1, 2, 3, 4, 5, 6, 7, 8, 9, 10, 11, 12, 13, 14, 15, 16
17, 18, 19, 20, 21, 22, 23, 24, 25, 26, 27, 28, 29, 30, 31, 32
33, 34, 35, 36, 37, 38, 39, 40, 41, 42, 43, 44, 45, 46, 47, 48
49, 50, 51, 52, 53, 54, 55, 56, 57, 58, 59, 60, 61, 62, 63, 64
65, 66, 67, 68, 69, 70, 71, 72, 73, 74, 75, 76, 77, 78, 79, 80
81, 82, 83, 84, 85, 86, 87, 88, 89, 90, 91, 92, 93, 94, 95, 96
97, 98, 99, 100, 101, 102, 103, 104, 105, 106, 107, 108, 109, 110, 111, 112
113, 114, 115, 116, 117, 118, 119, 120, 121, 122, 123, 124, 125, 126, 127, 128
129, 130, 131, 132, 133, 134, 135, 136, 137, 138, 139, 140, 141, 142, 143, 144
145, 146, 147, 148, 149, 150, 151, 152, 153, 154, 155, 156, 157, 158, 159, 160
161, 162, 163, 164, 165, 166, 167, 168, 169, 170, 171, 172, 173, 174, 175, 176
177, 178, 179, 180, 181, 182, 183, 184, 185, 186, 187, 188, 189, 190, 191, 192
193, 194, 195, 196, 197, 198, 199, 200, 201, 202, 203, 204, 205, 206, 207, 208
209, 210, 211, 212, 213, 214, 215, 216, 217, 218, 219, 220, 221, 222, 223, 224
225, 226, 227, 228, 229, 230, 231, 232, 233, 234, 235, 236, 237, 238, 239, 240
241, 242, 243, 244, 245, 246, 247, 248, 249, 250, 251, 252, 253, 254, 255, 256
257, 258, 259, 260, 261, 262, 263, 264, 265, 266, 267, 268, 269, 270, 271, 272
273, 274, 275, 276, 277, 278, 279, 280, 281, 282, 283, 284, 285, 286, 287, 288
289, 290, 291, 292, 293, 294, 295, 296, 297, 298, 299, 300, 301, 302, 303, 304
305, 306, 307, 308, 309, 310, 311, 312, 313, 314, 315, 316, 317, 318, 319, 320
321, 322, 323, 324, 325, 326, 327, 328, 329, 330, 331, 332, 333, 334, 335, 336
337, 338, 339, 340, 341, 342, 343, 344, 345, 346, 347, 348, 349, 350, 351, 352
353, 354, 355, 356, 357, 358, 359, 360, 361, 362, 363, 364, 365, 366, 367, 368
369, 370, 371, 372, 373, 374, 375, 376, 377, 378, 379, 380, 381, 382, 383, 384
385, 386, 387, 388, 389, 390, 391, 392, 393, 394, 395, 396, 397, 398, 399, 400
401, 402, 403, 404, 405, 406, 407, 408, 409, 410, 411, 412, 413, 414, 415, 416
417, 418, 419, 420, 421, 422, 423, 424, 425, 426, 427, 428, 429, 430, 431, 432
433, 434, 435, 436, 437, 438, 439, 440, 441, 442, 443, 444, 445, 446, 447, 448
449, 450, 451, 452, 453, 454, 455, 456, 457, 458, 459, 460, 461, 462, 463, 464
465, 466, 467, 468, 469, 470, 471, 472, 473, 474, 475, 476, 477, 478, 479, 480
481, 482, 483, 484, 485, 486, 487, 488, 489, 490, 491, 492, 493, 494, 495, 496
497, 498, 499, 500, 501, 502, 503, 504, 505, 506, 507, 508, 509, 510, 511, 512
513, 514, 515, 516, 517, 518, 519, 520, 521, 522, 523, 524, 525, 526, 527, 528
529, 530, 531, 532, 533, 534, 535, 536, 537, 538, 539, 540, 541, 542, 543, 544
545, 546, 547, 548, 549, 550, 551, 552, 553, 554, 555, 556, 557, 558, 559, 560
561, 562, 563, 564, 565, 566, 567, 568, 569, 570, 571, 572, 573, 574, 575, 576
577, 578, 579, 580, 581, 582, 583, 584, 585, 586, 587, 588, 589, 590, 591, 592
593, 594, 595, 596, 597, 598, 599, 600, 601, 602, 603, 604, 605, 606, 607, 608
609, 610, 611, 612, 613, 614, 615, 616, 617, 618, 619, 620, 621, 622, 623, 624
625, 626, 627, 628, 629, 630, 631, 632, 633, 634, 635, 636, 637, 638, 639, 640
641, 642, 643, 644, 645, 646, 647, 648, 649, 650, 651, 652, 653, 654, 655, 656
657, 658, 659, 660, 661, 662, 663, 664, 665, 666, 667, 668, 669, 670, 671, 672
673, 674, 675, 676, 677, 678, 679, 680, 681, 682, 683, 684, 685, 686, 687, 688
689, 690, 691, 692, 693, 694, 695, 696, 697, 698, 699, 700, 701, 702, 703, 704
705, 706, 707, 708, 709, 710, 711, 712, 713, 714, 715, 716, 717, 718, 719, 720
721, 722, 723, 724, 725, 726, 727, 728, 729
*ELSET, ELSET=E_SEC2
1001, 1002, 1003, 1004, 1005, 1006, 1007, 1008, 1009, 1010, 1011, 1012, 1013, 1014, 1015, 1016
1017, 1018, 1019, 1020, 1021, 1022, 1023, 1024, 1025, 1026, 1027, 1028, 1029, 1030, 1031, 1032
1033, 1034, 1035, 1036, 1037, 1038, 1039, 1040, 1041, 1042, 1043, 1044, 1045, 1046, 1047, 1048
1049, 1050, 1051, 1052, 1053, 1054, 1055, 1056, 1057, 1058, 1059, 1060, 1061, 1062, 1063, 1064
1065, 1066, 1067, 1068, 1069, 1070, 1071, 1072, 1073, 1074, 1075, 1076, 1077, 1078, 1079, 1080
1081, 1082, 1083, 1084, 1085, 1086, 1087, 1088, 1089, 1090, 1091, 1092, 1093, 1094, 1095, 1096
1097, 1098, 1099, 1100, 1101, 1102, 1103, 1104, 1105, 1106, 1107, 1108, 1109, 1110, 1111, 1112
1113, 1114, 1115, 1116, 1117, 1118, 1119, 1120, 1121, 1122, 1123, 1124, 1125, 1126, 1127, 1128
1129, 1130, 1131, 1132, 1133, 1134, 1135, 1136, 1137, 1138, 1139, 1140, 1141, 1142, 1143, 1144
1145, 1146, 1147, 1148, 1149, 1150, 1151, 1152, 1153, 1154, 1155, 1156, 1157, 1158, 1159, 1160
1161, 1162, 1163, 1164, 1165, 1166, 1167, 1168, 1169, 1170, 1171, 1172, 1173, 1174, 1175, 1176
1177, 1178, 1179, 1180, 1181, 1182, 1183, 1184, 1185, 1186, 1187, 1188, 1189, 1190, 1191, 1192
1193, 1194, 1195, 1196, 1197, 1198, 1199, 1200, 1201, 1202, 1203, 1204, 1205, 1206, 1207, 1208
1209, 1210, 1211, 1212, 1213, 1214, 1215, 1216, 1217, 1218, 1219, 1220, 1221, 1222, 1223, 1224
1225, 1226, 1227, 1228, 1229, 1230, 1231, 1232, 1233, 1234, 1235, 1236, 1237, 1238, 1239, 1240
1241, 1242, 1243, 1244, 1245, 1246, 1247, 1248, 1249, 1250, 1251, 1252, 1253, 1254, 1255, 1256
1257, 1258, 1259, 1260, 1261, 1262, 1263, 1264, 1265, 1266, 1267, 1268, 1269, 1270, 1271, 1272
1273, 1274, 1275, 1276, 1277, 1278, 1279, 1280, 1281, 1282, 1283, 1284, 1285, 1286, 1287, 1288
1289, 1290, 1291, 1292, 1293, 1294, 1295, 1296, 1297, 1298, 1299, 1300, 1301, 1302, 1303, 1304
1305, 1306, 1307, 1308, 1309, 1310, 1311, 1312, 1313, 1314, 1315, 1316, 1317, 1318, 1319, 1320
1321, 1322, 1323, 1324, 1325, 1326, 1327, 1328, 1329, 1330, 1331, 1332, 1333, 1334, 1335, 1336
1337, 1338, 1339, 1340, 1341, 1342, 1343, 1344, 1345, 1346, 1347, 1348, 1349, 1350, 1351, 1352
1353, 1354, 1355, 1356, 1357, 1358, 1359, 1360, 1361, 1362, 1363, 1364, 1365, 1366, 1367, 1368
1369, 1370, 1371, 1372, 1373, 1374, 1375, 1376, 1377, 1378, 1379, 1380, 1381, 1382, 1383, 1384
1385, 1386, 1387, 1388, 1389, 1390, 1391, 1392, 1393, 1394
*ELSET, ELSET=E_SEC3
1395, 1396, 1397, 1398, 1399, 1400, 1401, 1402, 1403, 1404, 1405, 1406, 1407, 1408, 1409, 1410
1411, 1412, 1413, 1414, 1415, 1416, 1417, 1418, 1419, 1420, 1421, 1422, 1423, 1424, 1425, 1426
1427, 1428, 1429, 1430, 1431, 1432, 1433, 1434, 1435, 1436, 1437, 1438, 1439, 1440, 1441, 1442
1443, 1444, 1445, 1446, 1447, 1448, 1449, 1450, 1451, 1452, 1453, 1454, 1455, 1456, 1457, 1458
1459, 1460, 1461, 1462, 1463, 1464, 1465
*MATERIAL, NAME=MAT1
*ELASTIC
120000, 0.3
*DENSITY
1.26484805e-08
*MATERIAL, NAME=MAT2
*ELASTIC
120000, 0.3
*DENSITY
8.59881705e-09
*MATERIAL, NAME=MAT3
*ELASTIC
206000, 0.31
*DENSITY
1.01978381e-17
*SOLID SECTION, ELSET=E_SEC1, MATERIAL=MAT1
22298.692
*SOLID SECTION, ELSET=E_SEC2, MATERIAL=MAT2
8402.9797
*BEAM SECTION, ELSET=E_SEC3, MATERIAL=MAT3, SECTION=RECT
98.954535, 98.954535
1, 1, 1
*INITIAL CONDITIONS, TYPE=STRESS
** ccx_2.21_s7.76_element_ip_six_pk2_global; sigma = F_N / A_mm2 from MCT INI-EFORCE mean, else INIFORCE
1, 1, 2.853700e+02, 0.000000e+00, 4.180905e+02, 0.000000e+00, 3.454135e+02, 0.000000e+00
1, 2, 2.853700e+02, 0.000000e+00, 4.180905e+02, 0.000000e+00, 3.454135e+02, 0.000000e+00
1, 3, 2.853700e+02, 0.000000e+00, 4.180905e+02, 0.000000e+00, 3.454135e+02, 0.000000e+00
1, 4, 2.853700e+02, 0.000000e+00, 4.180905e+02, 0.000000e+00, 3.454135e+02, 0.000000e+00
1, 5, 2.853700e+02, 0.000000e+00, 4.180905e+02, 0.000000e+00, 3.454135e+02, 0.000000e+00
1, 6, 2.853700e+02, 0.000000e+00, 4.180905e+02, 0.000000e+00, 3.454135e+02, 0.000000e+00
1, 7, 2.853700e+02, 0.000000e+00, 4.180905e+02, 0.000000e+00, 3.454135e+02, 0.000000e+00
1, 8, 2.853700e+02, 0.000000e+00, 4.180905e+02, 0.000000e+00, 3.454135e+02, 0.000000e+00
2, 1, 2.846776e+02, 0.000000e+00, 4.204894e+02, 0.000000e+00, 3.459825e+02, 0.000000e+00
2, 2, 2.846776e+02, 0.000000e+00, 4.204894e+02, 0.000000e+00, 3.459825e+02, 0.000000e+00
2, 3, 2.846776e+02, 0.000000e+00, 4.204894e+02, 0.000000e+00, 3.459825e+02, 0.000000e+00
2, 4, 2.846776e+02, 0.000000e+00, 4.204894e+02, 0.000000e+00, 3.459825e+02, 0.000000e+00
2, 5, 2.846776e+02, 0.000000e+00, 4.204894e+02, 0.000000e+00, 3.459825e+02, 0.000000e+00
2, 6, 2.846776e+02, 0.000000e+00, 4.204894e+02, 0.000000e+00, 3.459825e+02, 0.000000e+00
2, 7, 2.846776e+02, 0.000000e+00, 4.204894e+02, 0.000000e+00, 3.459825e+02, 0.000000e+00
2, 8, 2.846776e+02, 0.000000e+00, 4.204894e+02, 0.000000e+00, 3.459825e+02, 0.000000e+00
3, 1, 3.667546e+02, 0.000000e+00, 1.806048e+02, 0.000000e+00, 2.573668e+02, 0.000000e+00
3, 2, 3.667546e+02, 0.000000e+00, 1.806048e+02, 0.000000e+00, 2.573668e+02, 0.000000e+00
3, 3, 3.667546e+02, 0.000000e+00, 1.806048e+02, 0.000000e+00, 2.573668e+02, 0.000000e+00
3, 4, 3.667546e+02, 0.000000e+00, 1.806048e+02, 0.000000e+00, 2.573668e+02, 0.000000e+00
3, 5, 3.667546e+02, 0.000000e+00, 1.806048e+02, 0.000000e+00, 2.573668e+02, 0.000000e+00
3, 6, 3.667546e+02, 0.000000e+00, 1.806048e+02, 0.000000e+00, 2.573668e+02, 0.000000e+00
3, 7, 3.667546e+02, 0.000000e+00, 1.806048e+02, 0.000000e+00, 2.573668e+02, 0.000000e+00
3, 8, 3.667546e+02, 0.000000e+00, 1.806048e+02, 0.000000e+00, 2.573668e+02, 0.000000e+00
4, 1, 3.666374e+02, 0.000000e+00, 1.808969e+02, 0.000000e+00, 2.575337e+02, 0.000000e+00
4, 2, 3.666374e+02, 0.000000e+00, 1.808969e+02, 0.000000e+00, 2.575337e+02, 0.000000e+00
4, 3, 3.666374e+02, 0.000000e+00, 1.808969e+02, 0.000000e+00, 2.575337e+02, 0.000000e+00
4, 4, 3.666374e+02, 0.000000e+00, 1.808969e+02, 0.000000e+00, 2.575337e+02, 0.000000e+00
4, 5, 3.666374e+02, 0.000000e+00, 1.808969e+02, 0.000000e+00, 2.575337e+02, 0.000000e+00
4, 6, 3.666374e+02, 0.000000e+00, 1.808969e+02, 0.000000e+00, 2.575337e+02, 0.000000e+00
4, 7, 3.666374e+02, 0.000000e+00, 1.808969e+02, 0.000000e+00, 2.575337e+02, 0.000000e+00
4, 8, 3.666374e+02, 0.000000e+00, 1.808969e+02, 0.000000e+00, 2.575337e+02, 0.000000e+00
5, 1, 3.665240e+02, 0.000000e+00, 1.811785e+02, 0.000000e+00, 2.576942e+02, 0.000000e+00
5, 2, 3.665240e+02, 0.000000e+00, 1.811785e+02, 0.000000e+00, 2.576942e+02, 0.000000e+00
5, 3, 3.665240e+02, 0.000000e+00, 1.811785e+02, 0.000000e+00, 2.576942e+02, 0.000000e+00
5, 4, 3.665240e+02, 0.000000e+00, 1.811785e+02, 0.000000e+00, 2.576942e+02, 0.000000e+00
5, 5, 3.665240e+02, 0.000000e+00, 1.811785e+02, 0.000000e+00, 2.576942e+02, 0.000000e+00
5, 6, 3.665240e+02, 0.000000e+00, 1.811785e+02, 0.000000e+00, 2.576942e+02, 0.000000e+00
5, 7, 3.665240e+02, 0.000000e+00, 1.811785e+02, 0.000000e+00, 2.576942e+02, 0.000000e+00
5, 8, 3.665240e+02, 0.000000e+00, 1.811785e+02, 0.000000e+00, 2.576942e+02, 0.000000e+00
6, 1, 4.278873e+02, 0.000000e+00, 4.126577e+01, 0.000000e+00, 1.328800e+02, 0.000000e+00
6, 2, 4.278873e+02, 0.000000e+00, 4.126577e+01, 0.000000e+00, 1.328800e+02, 0.000000e+00
6, 3, 4.278873e+02, 0.000000e+00, 4.126577e+01, 0.000000e+00, 1.328800e+02, 0.000000e+00
6, 4, 4.278873e+02, 0.000000e+00, 4.126577e+01, 0.000000e+00, 1.328800e+02, 0.000000e+00
6, 5, 4.278873e+02, 0.000000e+00, 4.126577e+01, 0.000000e+00, 1.328800e+02, 0.000000e+00
6, 6, 4.278873e+02, 0.000000e+00, 4.126577e+01, 0.000000e+00, 1.328800e+02, 0.000000e+00
6, 7, 4.278873e+02, 0.000000e+00, 4.126577e+01, 0.000000e+00, 1.328800e+02, 0.000000e+00
6, 8, 4.278873e+02, 0.000000e+00, 4.126577e+01, 0.000000e+00, 1.328800e+02, 0.000000e+00
7, 1, 4.277789e+02, 0.000000e+00, 4.149300e+01, 0.000000e+00, 1.332285e+02, 0.000000e+00
7, 2, 4.277789e+02, 0.000000e+00, 4.149300e+01, 0.000000e+00, 1.332285e+02, 0.000000e+00
7, 3, 4.277789e+02, 0.000000e+00, 4.149300e+01, 0.000000e+00, 1.332285e+02, 0.000000e+00
7, 4, 4.277789e+02, 0.000000e+00, 4.149300e+01, 0.000000e+00, 1.332285e+02, 0.000000e+00
7, 5, 4.277789e+02, 0.000000e+00, 4.149300e+01, 0.000000e+00, 1.332285e+02, 0.000000e+00
7, 6, 4.277789e+02, 0.000000e+00, 4.149300e+01, 0.000000e+00, 1.332285e+02, 0.000000e+00
7, 7, 4.277789e+02, 0.000000e+00, 4.149300e+01, 0.000000e+00, 1.332285e+02, 0.000000e+00
7, 8, 4.277789e+02, 0.000000e+00, 4.149300e+01, 0.000000e+00, 1.332285e+02, 0.000000e+00
8, 1, 4.268305e+02, 0.000000e+00, 4.347963e+01, 0.000000e+00, 1.362293e+02, 0.000000e+00
8, 2, 4.268305e+02, 0.000000e+00, 4.347963e+01, 0.000000e+00, 1.362293e+02, 0.000000e+00
8, 3, 4.268305e+02, 0.000000e+00, 4.347963e+01, 0.000000e+00, 1.362293e+02, 0.000000e+00
8, 4, 4.268305e+02, 0.000000e+00, 4.347963e+01, 0.000000e+00, 1.362293e+02, 0.000000e+00
8, 5, 4.268305e+02, 0.000000e+00, 4.347963e+01, 0.000000e+00, 1.362293e+02, 0.000000e+00
8, 6, 4.268305e+02, 0.000000e+00, 4.347963e+01, 0.000000e+00, 1.362293e+02, 0.000000e+00
8, 7, 4.268305e+02, 0.000000e+00, 4.347963e+01, 0.000000e+00, 1.362293e+02, 0.000000e+00
8, 8, 4.268305e+02, 0.000000e+00, 4.347963e+01, 0.000000e+00, 1.362293e+02, 0.000000e+00
9, 1, 4.266034e+02, 0.000000e+00, 4.396008e+01, 0.000000e+00, 1.369435e+02, 0.000000e+00
9, 2, 4.266034e+02, 0.000000e+00, 4.396008e+01, 0.000000e+00, 1.369435e+02, 0.000000e+00
9, 3, 4.266034e+02, 0.000000e+00, 4.396008e+01, 0.000000e+00, 1.369435e+02, 0.000000e+00
9, 4, 4.266034e+02, 0.000000e+00, 4.396008e+01, 0.000000e+00, 1.369435e+02, 0.000000e+00
9, 5, 4.266034e+02, 0.000000e+00, 4.396008e+01, 0.000000e+00, 1.369435e+02, 0.000000e+00
9, 6, 4.266034e+02, 0.000000e+00, 4.396008e+01, 0.000000e+00, 1.369435e+02, 0.000000e+00
9, 7, 4.266034e+02, 0.000000e+00, 4.396008e+01, 0.000000e+00, 1.369435e+02, 0.000000e+00
9, 8, 4.266034e+02, 0.000000e+00, 4.396008e+01, 0.000000e+00, 1.369435e+02, 0.000000e+00
10, 1, 4.264273e+02, 0.000000e+00, 4.433345e+01, 0.000000e+00, 1.374954e+02, 0.000000e+00
10, 2, 4.264273e+02, 0.000000e+00, 4.433345e+01, 0.000000e+00, 1.374954e+02, 0.000000e+00
10, 3, 4.264273e+02, 0.000000e+00, 4.433345e+01, 0.000000e+00, 1.374954e+02, 0.000000e+00
10, 4, 4.264273e+02, 0.000000e+00, 4.433345e+01, 0.000000e+00, 1.374954e+02, 0.000000e+00
10, 5, 4.264273e+02, 0.000000e+00, 4.433345e+01, 0.000000e+00, 1.374954e+02, 0.000000e+00
10, 6, 4.264273e+02, 0.000000e+00, 4.433345e+01, 0.000000e+00, 1.374954e+02, 0.000000e+00
10, 7, 4.264273e+02, 0.000000e+00, 4.433345e+01, 0.000000e+00, 1.374954e+02, 0.000000e+00
10, 8, 4.264273e+02, 0.000000e+00, 4.433345e+01, 0.000000e+00, 1.374954e+02, 0.000000e+00
11, 1, 4.263042e+02, 0.000000e+00, 4.459335e+01, 0.000000e+00, 1.378780e+02, 0.000000e+00
11, 2, 4.263042e+02, 0.000000e+00, 4.459335e+01, 0.000000e+00, 1.378780e+02, 0.000000e+00
11, 3, 4.263042e+02, 0.000000e+00, 4.459335e+01, 0.000000e+00, 1.378780e+02, 0.000000e+00
11, 4, 4.263042e+02, 0.000000e+00, 4.459335e+01, 0.000000e+00, 1.378780e+02, 0.000000e+00
11, 5, 4.263042e+02, 0.000000e+00, 4.459335e+01, 0.000000e+00, 1.378780e+02, 0.000000e+00
11, 6, 4.263042e+02, 0.000000e+00, 4.459335e+01, 0.000000e+00, 1.378780e+02, 0.000000e+00
11, 7, 4.263042e+02, 0.000000e+00, 4.459335e+01, 0.000000e+00, 1.378780e+02, 0.000000e+00
11, 8, 4.263042e+02, 0.000000e+00, 4.459335e+01, 0.000000e+00, 1.378780e+02, 0.000000e+00
12, 1, 4.261215e+02, 0.000000e+00, 4.497344e+01, 0.000000e+00, 1.384346e+02, 0.000000e+00
12, 2, 4.261215e+02, 0.000000e+00, 4.497344e+01, 0.000000e+00, 1.384346e+02, 0.000000e+00
12, 3, 4.261215e+02, 0.000000e+00, 4.497344e+01, 0.000000e+00, 1.384346e+02, 0.000000e+00
12, 4, 4.261215e+02, 0.000000e+00, 4.497344e+01, 0.000000e+00, 1.384346e+02, 0.000000e+00
12, 5, 4.261215e+02, 0.000000e+00, 4.497344e+01, 0.000000e+00, 1.384346e+02, 0.000000e+00
12, 6, 4.261215e+02, 0.000000e+00, 4.497344e+01, 0.000000e+00, 1.384346e+02, 0.000000e+00
12, 7, 4.261215e+02, 0.000000e+00, 4.497344e+01, 0.000000e+00, 1.384346e+02, 0.000000e+00
12, 8, 4.261215e+02, 0.000000e+00, 4.497344e+01, 0.000000e+00, 1.384346e+02, 0.000000e+00
13, 1, 4.258725e+02, 0.000000e+00, 4.550041e+01, 0.000000e+00, 1.392026e+02, 0.000000e+00
13, 2, 4.258725e+02, 0.000000e+00, 4.550041e+01, 0.000000e+00, 1.392026e+02, 0.000000e+00
13, 3, 4.258725e+02, 0.000000e+00, 4.550041e+01, 0.000000e+00, 1.392026e+02, 0.000000e+00
13, 4, 4.258725e+02, 0.000000e+00, 4.550041e+01, 0.000000e+00, 1.392026e+02, 0.000000e+00
13, 5, 4.258725e+02, 0.000000e+00, 4.550041e+01, 0.000000e+00, 1.392026e+02, 0.000000e+00
13, 6, 4.258725e+02, 0.000000e+00, 4.550041e+01, 0.000000e+00, 1.392026e+02, 0.000000e+00
13, 7, 4.258725e+02, 0.000000e+00, 4.550041e+01, 0.000000e+00, 1.392026e+02, 0.000000e+00
13, 8, 4.258725e+02, 0.000000e+00, 4.550041e+01, 0.000000e+00, 1.392026e+02, 0.000000e+00
14, 1, 4.256927e+02, 0.000000e+00, 4.587984e+01, 0.000000e+00, 1.397523e+02, 0.000000e+00
14, 2, 4.256927e+02, 0.000000e+00, 4.587984e+01, 0.000000e+00, 1.397523e+02, 0.000000e+00
14, 3, 4.256927e+02, 0.000000e+00, 4.587984e+01, 0.000000e+00, 1.397523e+02, 0.000000e+00
14, 4, 4.256927e+02, 0.000000e+00, 4.587984e+01, 0.000000e+00, 1.397523e+02, 0.000000e+00
14, 5, 4.256927e+02, 0.000000e+00, 4.587984e+01, 0.000000e+00, 1.397523e+02, 0.000000e+00
14, 6, 4.256927e+02, 0.000000e+00, 4.587984e+01, 0.000000e+00, 1.397523e+02, 0.000000e+00
14, 7, 4.256927e+02, 0.000000e+00, 4.587984e+01, 0.000000e+00, 1.397523e+02, 0.000000e+00
14, 8, 4.256927e+02, 0.000000e+00, 4.587984e+01, 0.000000e+00, 1.397523e+02, 0.000000e+00
15, 1, 4.255676e+02, 0.000000e+00, 4.614394e+01, 0.000000e+00, 1.401334e+02, 0.000000e+00
15, 2, 4.255676e+02, 0.000000e+00, 4.614394e+01, 0.000000e+00, 1.401334e+02, 0.000000e+00
15, 3, 4.255676e+02, 0.000000e+00, 4.614394e+01, 0.000000e+00, 1.401334e+02, 0.000000e+00
15, 4, 4.255676e+02, 0.000000e+00, 4.614394e+01, 0.000000e+00, 1.401334e+02, 0.000000e+00
15, 5, 4.255676e+02, 0.000000e+00, 4.614394e+01, 0.000000e+00, 1.401334e+02, 0.000000e+00
15, 6, 4.255676e+02, 0.000000e+00, 4.614394e+01, 0.000000e+00, 1.401334e+02, 0.000000e+00
15, 7, 4.255676e+02, 0.000000e+00, 4.614394e+01, 0.000000e+00, 1.401334e+02, 0.000000e+00
15, 8, 4.255676e+02, 0.000000e+00, 4.614394e+01, 0.000000e+00, 1.401334e+02, 0.000000e+00
16, 1, 4.253428e+02, 0.000000e+00, 4.661543e+01, 0.000000e+00, 1.408103e+02, 0.000000e+00
16, 2, 4.253428e+02, 0.000000e+00, 4.661543e+01, 0.000000e+00, 1.408103e+02, 0.000000e+00
16, 3, 4.253428e+02, 0.000000e+00, 4.661543e+01, 0.000000e+00, 1.408103e+02, 0.000000e+00
16, 4, 4.253428e+02, 0.000000e+00, 4.661543e+01, 0.000000e+00, 1.408103e+02, 0.000000e+00
16, 5, 4.253428e+02, 0.000000e+00, 4.661543e+01, 0.000000e+00, 1.408103e+02, 0.000000e+00
16, 6, 4.253428e+02, 0.000000e+00, 4.661543e+01, 0.000000e+00, 1.408103e+02, 0.000000e+00
16, 7, 4.253428e+02, 0.000000e+00, 4.661543e+01, 0.000000e+00, 1.408103e+02, 0.000000e+00
16, 8, 4.253428e+02, 0.000000e+00, 4.661543e+01, 0.000000e+00, 1.408103e+02, 0.000000e+00
17, 1, 4.250894e+02, 0.000000e+00, 4.715126e+01, 0.000000e+00, 1.415751e+02, 0.000000e+00
17, 2, 4.250894e+02, 0.000000e+00, 4.715126e+01, 0.000000e+00, 1.415751e+02, 0.000000e+00
17, 3, 4.250894e+02, 0.000000e+00, 4.715126e+01, 0.000000e+00, 1.415751e+02, 0.000000e+00
17, 4, 4.250894e+02, 0.000000e+00, 4.715126e+01, 0.000000e+00, 1.415751e+02, 0.000000e+00
17, 5, 4.250894e+02, 0.000000e+00, 4.715126e+01, 0.000000e+00, 1.415751e+02, 0.000000e+00
17, 6, 4.250894e+02, 0.000000e+00, 4.715126e+01, 0.000000e+00, 1.415751e+02, 0.000000e+00
17, 7, 4.250894e+02, 0.000000e+00, 4.715126e+01, 0.000000e+00, 1.415751e+02, 0.000000e+00
17, 8, 4.250894e+02, 0.000000e+00, 4.715126e+01, 0.000000e+00, 1.415751e+02, 0.000000e+00
18, 1, 4.249075e+02, 0.000000e+00, 4.753725e+01, 0.000000e+00, 1.421230e+02, 0.000000e+00
18, 2, 4.249075e+02, 0.000000e+00, 4.753725e+01, 0.000000e+00, 1.421230e+02, 0.000000e+00
18, 3, 4.249075e+02, 0.000000e+00, 4.753725e+01, 0.000000e+00, 1.421230e+02, 0.000000e+00
18, 4, 4.249075e+02, 0.000000e+00, 4.753725e+01, 0.000000e+00, 1.421230e+02, 0.000000e+00
18, 5, 4.249075e+02, 0.000000e+00, 4.753725e+01, 0.000000e+00, 1.421230e+02, 0.000000e+00
18, 6, 4.249075e+02, 0.000000e+00, 4.753725e+01, 0.000000e+00, 1.421230e+02, 0.000000e+00
18, 7, 4.249075e+02, 0.000000e+00, 4.753725e+01, 0.000000e+00, 1.421230e+02, 0.000000e+00
18, 8, 4.249075e+02, 0.000000e+00, 4.753725e+01, 0.000000e+00, 1.421230e+02, 0.000000e+00
19, 1, 4.247803e+02, 0.000000e+00, 4.780575e+01, 0.000000e+00, 1.425024e+02, 0.000000e+00
19, 2, 4.247803e+02, 0.000000e+00, 4.780575e+01, 0.000000e+00, 1.425024e+02, 0.000000e+00
19, 3, 4.247803e+02, 0.000000e+00, 4.780575e+01, 0.000000e+00, 1.425024e+02, 0.000000e+00
19, 4, 4.247803e+02, 0.000000e+00, 4.780575e+01, 0.000000e+00, 1.425024e+02, 0.000000e+00
19, 5, 4.247803e+02, 0.000000e+00, 4.780575e+01, 0.000000e+00, 1.425024e+02, 0.000000e+00
19, 6, 4.247803e+02, 0.000000e+00, 4.780575e+01, 0.000000e+00, 1.425024e+02, 0.000000e+00
19, 7, 4.247803e+02, 0.000000e+00, 4.780575e+01, 0.000000e+00, 1.425024e+02, 0.000000e+00
19, 8, 4.247803e+02, 0.000000e+00, 4.780575e+01, 0.000000e+00, 1.425024e+02, 0.000000e+00
20, 1, 4.245938e+02, 0.000000e+00, 4.819854e+01, 0.000000e+00, 1.430552e+02, 0.000000e+00
20, 2, 4.245938e+02, 0.000000e+00, 4.819854e+01, 0.000000e+00, 1.430552e+02, 0.000000e+00
20, 3, 4.245938e+02, 0.000000e+00, 4.819854e+01, 0.000000e+00, 1.430552e+02, 0.000000e+00
20, 4, 4.245938e+02, 0.000000e+00, 4.819854e+01, 0.000000e+00, 1.430552e+02, 0.000000e+00
20, 5, 4.245938e+02, 0.000000e+00, 4.819854e+01, 0.000000e+00, 1.430552e+02, 0.000000e+00
20, 6, 4.245938e+02, 0.000000e+00, 4.819854e+01, 0.000000e+00, 1.430552e+02, 0.000000e+00
20, 7, 4.245938e+02, 0.000000e+00, 4.819854e+01, 0.000000e+00, 1.430552e+02, 0.000000e+00
20, 8, 4.245938e+02, 0.000000e+00, 4.819854e+01, 0.000000e+00, 1.430552e+02, 0.000000e+00
21, 1, 4.243345e+02, 0.000000e+00, 4.874254e+01, 0.000000e+00, 1.438163e+02, 0.000000e+00
21, 2, 4.243345e+02, 0.000000e+00, 4.874254e+01, 0.000000e+00, 1.438163e+02, 0.000000e+00
21, 3, 4.243345e+02, 0.000000e+00, 4.874254e+01, 0.000000e+00, 1.438163e+02, 0.000000e+00
21, 4, 4.243345e+02, 0.000000e+00, 4.874254e+01, 0.000000e+00, 1.438163e+02, 0.000000e+00
21, 5, 4.243345e+02, 0.000000e+00, 4.874254e+01, 0.000000e+00, 1.438163e+02, 0.000000e+00
21, 6, 4.243345e+02, 0.000000e+00, 4.874254e+01, 0.000000e+00, 1.438163e+02, 0.000000e+00
21, 7, 4.243345e+02, 0.000000e+00, 4.874254e+01, 0.000000e+00, 1.438163e+02, 0.000000e+00
21, 8, 4.243345e+02, 0.000000e+00, 4.874254e+01, 0.000000e+00, 1.438163e+02, 0.000000e+00
22, 1, 4.241529e+02, 0.000000e+00, 4.913499e+01, 0.000000e+00, 1.443632e+02, 0.000000e+00
22, 2, 4.241529e+02, 0.000000e+00, 4.913499e+01, 0.000000e+00, 1.443632e+02, 0.000000e+00
22, 3, 4.241529e+02, 0.000000e+00, 4.913499e+01, 0.000000e+00, 1.443632e+02, 0.000000e+00
22, 4, 4.241529e+02, 0.000000e+00, 4.913499e+01, 0.000000e+00, 1.443632e+02, 0.000000e+00
22, 5, 4.241529e+02, 0.000000e+00, 4.913499e+01, 0.000000e+00, 1.443632e+02, 0.000000e+00
22, 6, 4.241529e+02, 0.000000e+00, 4.913499e+01, 0.000000e+00, 1.443632e+02, 0.000000e+00
22, 7, 4.241529e+02, 0.000000e+00, 4.913499e+01, 0.000000e+00, 1.443632e+02, 0.000000e+00
22, 8, 4.241529e+02, 0.000000e+00, 4.913499e+01, 0.000000e+00, 1.443632e+02, 0.000000e+00
23, 1, 4.240237e+02, 0.000000e+00, 4.940766e+01, 0.000000e+00, 1.447412e+02, 0.000000e+00
23, 2, 4.240237e+02, 0.000000e+00, 4.940766e+01, 0.000000e+00, 1.447412e+02, 0.000000e+00
23, 3, 4.240237e+02, 0.000000e+00, 4.940766e+01, 0.000000e+00, 1.447412e+02, 0.000000e+00
23, 4, 4.240237e+02, 0.000000e+00, 4.940766e+01, 0.000000e+00, 1.447412e+02, 0.000000e+00
23, 5, 4.240237e+02, 0.000000e+00, 4.940766e+01, 0.000000e+00, 1.447412e+02, 0.000000e+00
23, 6, 4.240237e+02, 0.000000e+00, 4.940766e+01, 0.000000e+00, 1.447412e+02, 0.000000e+00
23, 7, 4.240237e+02, 0.000000e+00, 4.940766e+01, 0.000000e+00, 1.447412e+02, 0.000000e+00
23, 8, 4.240237e+02, 0.000000e+00, 4.940766e+01, 0.000000e+00, 1.447412e+02, 0.000000e+00
24, 1, 4.238335e+02, 0.000000e+00, 4.980636e+01, 0.000000e+00, 1.452914e+02, 0.000000e+00
24, 2, 4.238335e+02, 0.000000e+00, 4.980636e+01, 0.000000e+00, 1.452914e+02, 0.000000e+00
24, 3, 4.238335e+02, 0.000000e+00, 4.980636e+01, 0.000000e+00, 1.452914e+02, 0.000000e+00
24, 4, 4.238335e+02, 0.000000e+00, 4.980636e+01, 0.000000e+00, 1.452914e+02, 0.000000e+00
24, 5, 4.238335e+02, 0.000000e+00, 4.980636e+01, 0.000000e+00, 1.452914e+02, 0.000000e+00
24, 6, 4.238335e+02, 0.000000e+00, 4.980636e+01, 0.000000e+00, 1.452914e+02, 0.000000e+00
24, 7, 4.238335e+02, 0.000000e+00, 4.980636e+01, 0.000000e+00, 1.452914e+02, 0.000000e+00
24, 8, 4.238335e+02, 0.000000e+00, 4.980636e+01, 0.000000e+00, 1.452914e+02, 0.000000e+00
25, 1, 4.235724e+02, 0.000000e+00, 5.035895e+01, 0.000000e+00, 1.460502e+02, 0.000000e+00
25, 2, 4.235724e+02, 0.000000e+00, 5.035895e+01, 0.000000e+00, 1.460502e+02, 0.000000e+00
25, 3, 4.235724e+02, 0.000000e+00, 5.035895e+01, 0.000000e+00, 1.460502e+02, 0.000000e+00
25, 4, 4.235724e+02, 0.000000e+00, 5.035895e+01, 0.000000e+00, 1.460502e+02, 0.000000e+00
25, 5, 4.235724e+02, 0.000000e+00, 5.035895e+01, 0.000000e+00, 1.460502e+02, 0.000000e+00
25, 6, 4.235724e+02, 0.000000e+00, 5.035895e+01, 0.000000e+00, 1.460502e+02, 0.000000e+00
25, 7, 4.235724e+02, 0.000000e+00, 5.035895e+01, 0.000000e+00, 1.460502e+02, 0.000000e+00
25, 8, 4.235724e+02, 0.000000e+00, 5.035895e+01, 0.000000e+00, 1.460502e+02, 0.000000e+00
26, 1, 4.233850e+02, 0.000000e+00, 5.075714e+01, 0.000000e+00, 1.465940e+02, 0.000000e+00
26, 2, 4.233850e+02, 0.000000e+00, 5.075714e+01, 0.000000e+00, 1.465940e+02, 0.000000e+00
26, 3, 4.233850e+02, 0.000000e+00, 5.075714e+01, 0.000000e+00, 1.465940e+02, 0.000000e+00
26, 4, 4.233850e+02, 0.000000e+00, 5.075714e+01, 0.000000e+00, 1.465940e+02, 0.000000e+00
26, 5, 4.233850e+02, 0.000000e+00, 5.075714e+01, 0.000000e+00, 1.465940e+02, 0.000000e+00
26, 6, 4.233850e+02, 0.000000e+00, 5.075714e+01, 0.000000e+00, 1.465940e+02, 0.000000e+00
26, 7, 4.233850e+02, 0.000000e+00, 5.075714e+01, 0.000000e+00, 1.465940e+02, 0.000000e+00
26, 8, 4.233850e+02, 0.000000e+00, 5.075714e+01, 0.000000e+00, 1.465940e+02, 0.000000e+00
27, 1, 4.232560e+02, 0.000000e+00, 5.103420e+01, 0.000000e+00, 1.469712e+02, 0.000000e+00
27, 2, 4.232560e+02, 0.000000e+00, 5.103420e+01, 0.000000e+00, 1.469712e+02, 0.000000e+00
27, 3, 4.232560e+02, 0.000000e+00, 5.103420e+01, 0.000000e+00, 1.469712e+02, 0.000000e+00
27, 4, 4.232560e+02, 0.000000e+00, 5.103420e+01, 0.000000e+00, 1.469712e+02, 0.000000e+00
27, 5, 4.232560e+02, 0.000000e+00, 5.103420e+01, 0.000000e+00, 1.469712e+02, 0.000000e+00
27, 6, 4.232560e+02, 0.000000e+00, 5.103420e+01, 0.000000e+00, 1.469712e+02, 0.000000e+00
27, 7, 4.232560e+02, 0.000000e+00, 5.103420e+01, 0.000000e+00, 1.469712e+02, 0.000000e+00
27, 8, 4.232560e+02, 0.000000e+00, 5.103420e+01, 0.000000e+00, 1.469712e+02, 0.000000e+00
28, 1, 4.231233e+02, 0.000000e+00, 5.131482e+01, 0.000000e+00, 1.473516e+02, 0.000000e+00
28, 2, 4.231233e+02, 0.000000e+00, 5.131482e+01, 0.000000e+00, 1.473516e+02, 0.000000e+00
28, 3, 4.231233e+02, 0.000000e+00, 5.131482e+01, 0.000000e+00, 1.473516e+02, 0.000000e+00
28, 4, 4.231233e+02, 0.000000e+00, 5.131482e+01, 0.000000e+00, 1.473516e+02, 0.000000e+00
28, 5, 4.231233e+02, 0.000000e+00, 5.131482e+01, 0.000000e+00, 1.473516e+02, 0.000000e+00
28, 6, 4.231233e+02, 0.000000e+00, 5.131482e+01, 0.000000e+00, 1.473516e+02, 0.000000e+00
28, 7, 4.231233e+02, 0.000000e+00, 5.131482e+01, 0.000000e+00, 1.473516e+02, 0.000000e+00
28, 8, 4.231233e+02, 0.000000e+00, 5.131482e+01, 0.000000e+00, 1.473516e+02, 0.000000e+00
29, 1, 4.229650e+02, 0.000000e+00, 5.164808e+01, 0.000000e+00, 1.478016e+02, 0.000000e+00
29, 2, 4.229650e+02, 0.000000e+00, 5.164808e+01, 0.000000e+00, 1.478016e+02, 0.000000e+00
29, 3, 4.229650e+02, 0.000000e+00, 5.164808e+01, 0.000000e+00, 1.478016e+02, 0.000000e+00
29, 4, 4.229650e+02, 0.000000e+00, 5.164808e+01, 0.000000e+00, 1.478016e+02, 0.000000e+00
29, 5, 4.229650e+02, 0.000000e+00, 5.164808e+01, 0.000000e+00, 1.478016e+02, 0.000000e+00
29, 6, 4.229650e+02, 0.000000e+00, 5.164808e+01, 0.000000e+00, 1.478016e+02, 0.000000e+00
29, 7, 4.229650e+02, 0.000000e+00, 5.164808e+01, 0.000000e+00, 1.478016e+02, 0.000000e+00
29, 8, 4.229650e+02, 0.000000e+00, 5.164808e+01, 0.000000e+00, 1.478016e+02, 0.000000e+00
30, 1, 4.227570e+02, 0.000000e+00, 5.208923e+01, 0.000000e+00, 1.483950e+02, 0.000000e+00
30, 2, 4.227570e+02, 0.000000e+00, 5.208923e+01, 0.000000e+00, 1.483950e+02, 0.000000e+00
30, 3, 4.227570e+02, 0.000000e+00, 5.208923e+01, 0.000000e+00, 1.483950e+02, 0.000000e+00
30, 4, 4.227570e+02, 0.000000e+00, 5.208923e+01, 0.000000e+00, 1.483950e+02, 0.000000e+00
30, 5, 4.227570e+02, 0.000000e+00, 5.208923e+01, 0.000000e+00, 1.483950e+02, 0.000000e+00
30, 6, 4.227570e+02, 0.000000e+00, 5.208923e+01, 0.000000e+00, 1.483950e+02, 0.000000e+00
30, 7, 4.227570e+02, 0.000000e+00, 5.208923e+01, 0.000000e+00, 1.483950e+02, 0.000000e+00
30, 8, 4.227570e+02, 0.000000e+00, 5.208923e+01, 0.000000e+00, 1.483950e+02, 0.000000e+00
31, 1, 4.225676e+02, 0.000000e+00, 5.249392e+01, 0.000000e+00, 1.489370e+02, 0.000000e+00
31, 2, 4.225676e+02, 0.000000e+00, 5.249392e+01, 0.000000e+00, 1.489370e+02, 0.000000e+00
31, 3, 4.225676e+02, 0.000000e+00, 5.249392e+01, 0.000000e+00, 1.489370e+02, 0.000000e+00
31, 4, 4.225676e+02, 0.000000e+00, 5.249392e+01, 0.000000e+00, 1.489370e+02, 0.000000e+00
31, 5, 4.225676e+02, 0.000000e+00, 5.249392e+01, 0.000000e+00, 1.489370e+02, 0.000000e+00
31, 6, 4.225676e+02, 0.000000e+00, 5.249392e+01, 0.000000e+00, 1.489370e+02, 0.000000e+00
31, 7, 4.225676e+02, 0.000000e+00, 5.249392e+01, 0.000000e+00, 1.489370e+02, 0.000000e+00
31, 8, 4.225676e+02, 0.000000e+00, 5.249392e+01, 0.000000e+00, 1.489370e+02, 0.000000e+00
32, 1, 4.224344e+02, 0.000000e+00, 5.277508e+01, 0.000000e+00, 1.493118e+02, 0.000000e+00
32, 2, 4.224344e+02, 0.000000e+00, 5.277508e+01, 0.000000e+00, 1.493118e+02, 0.000000e+00
32, 3, 4.224344e+02, 0.000000e+00, 5.277508e+01, 0.000000e+00, 1.493118e+02, 0.000000e+00
32, 4, 4.224344e+02, 0.000000e+00, 5.277508e+01, 0.000000e+00, 1.493118e+02, 0.000000e+00
32, 5, 4.224344e+02, 0.000000e+00, 5.277508e+01, 0.000000e+00, 1.493118e+02, 0.000000e+00
32, 6, 4.224344e+02, 0.000000e+00, 5.277508e+01, 0.000000e+00, 1.493118e+02, 0.000000e+00
32, 7, 4.224344e+02, 0.000000e+00, 5.277508e+01, 0.000000e+00, 1.493118e+02, 0.000000e+00
32, 8, 4.224344e+02, 0.000000e+00, 5.277508e+01, 0.000000e+00, 1.493118e+02, 0.000000e+00
33, 1, 4.222407e+02, 0.000000e+00, 5.318632e+01, 0.000000e+00, 1.498580e+02, 0.000000e+00
33, 2, 4.222407e+02, 0.000000e+00, 5.318632e+01, 0.000000e+00, 1.498580e+02, 0.000000e+00
33, 3, 4.222407e+02, 0.000000e+00, 5.318632e+01, 0.000000e+00, 1.498580e+02, 0.000000e+00
33, 4, 4.222407e+02, 0.000000e+00, 5.318632e+01, 0.000000e+00, 1.498580e+02, 0.000000e+00
33, 5, 4.222407e+02, 0.000000e+00, 5.318632e+01, 0.000000e+00, 1.498580e+02, 0.000000e+00
33, 6, 4.222407e+02, 0.000000e+00, 5.318632e+01, 0.000000e+00, 1.498580e+02, 0.000000e+00
33, 7, 4.222407e+02, 0.000000e+00, 5.318632e+01, 0.000000e+00, 1.498580e+02, 0.000000e+00
33, 8, 4.222407e+02, 0.000000e+00, 5.318632e+01, 0.000000e+00, 1.498580e+02, 0.000000e+00
34, 1, 4.219735e+02, 0.000000e+00, 5.375619e+01, 0.000000e+00, 1.506111e+02, 0.000000e+00
34, 2, 4.219735e+02, 0.000000e+00, 5.375619e+01, 0.000000e+00, 1.506111e+02, 0.000000e+00
34, 3, 4.219735e+02, 0.000000e+00, 5.375619e+01, 0.000000e+00, 1.506111e+02, 0.000000e+00
34, 4, 4.219735e+02, 0.000000e+00, 5.375619e+01, 0.000000e+00, 1.506111e+02, 0.000000e+00
34, 5, 4.219735e+02, 0.000000e+00, 5.375619e+01, 0.000000e+00, 1.506111e+02, 0.000000e+00
34, 6, 4.219735e+02, 0.000000e+00, 5.375619e+01, 0.000000e+00, 1.506111e+02, 0.000000e+00
34, 7, 4.219735e+02, 0.000000e+00, 5.375619e+01, 0.000000e+00, 1.506111e+02, 0.000000e+00
34, 8, 4.219735e+02, 0.000000e+00, 5.375619e+01, 0.000000e+00, 1.506111e+02, 0.000000e+00
35, 1, 4.217804e+02, 0.000000e+00, 5.416681e+01, 0.000000e+00, 1.511506e+02, 0.000000e+00
35, 2, 4.217804e+02, 0.000000e+00, 5.416681e+01, 0.000000e+00, 1.511506e+02, 0.000000e+00
35, 3, 4.217804e+02, 0.000000e+00, 5.416681e+01, 0.000000e+00, 1.511506e+02, 0.000000e+00
35, 4, 4.217804e+02, 0.000000e+00, 5.416681e+01, 0.000000e+00, 1.511506e+02, 0.000000e+00
35, 5, 4.217804e+02, 0.000000e+00, 5.416681e+01, 0.000000e+00, 1.511506e+02, 0.000000e+00
35, 6, 4.217804e+02, 0.000000e+00, 5.416681e+01, 0.000000e+00, 1.511506e+02, 0.000000e+00
35, 7, 4.217804e+02, 0.000000e+00, 5.416681e+01, 0.000000e+00, 1.511506e+02, 0.000000e+00
35, 8, 4.217804e+02, 0.000000e+00, 5.416681e+01, 0.000000e+00, 1.511506e+02, 0.000000e+00
36, 1, 4.216473e+02, 0.000000e+00, 5.445233e+01, 0.000000e+00, 1.515245e+02, 0.000000e+00
36, 2, 4.216473e+02, 0.000000e+00, 5.445233e+01, 0.000000e+00, 1.515245e+02, 0.000000e+00
36, 3, 4.216473e+02, 0.000000e+00, 5.445233e+01, 0.000000e+00, 1.515245e+02, 0.000000e+00
36, 4, 4.216473e+02, 0.000000e+00, 5.445233e+01, 0.000000e+00, 1.515245e+02, 0.000000e+00
36, 5, 4.216473e+02, 0.000000e+00, 5.445233e+01, 0.000000e+00, 1.515245e+02, 0.000000e+00
36, 6, 4.216473e+02, 0.000000e+00, 5.445233e+01, 0.000000e+00, 1.515245e+02, 0.000000e+00
36, 7, 4.216473e+02, 0.000000e+00, 5.445233e+01, 0.000000e+00, 1.515245e+02, 0.000000e+00
36, 8, 4.216473e+02, 0.000000e+00, 5.445233e+01, 0.000000e+00, 1.515245e+02, 0.000000e+00
37, 1, 4.214500e+02, 0.000000e+00, 5.486941e+01, 0.000000e+00, 1.520681e+02, 0.000000e+00
37, 2, 4.214500e+02, 0.000000e+00, 5.486941e+01, 0.000000e+00, 1.520681e+02, 0.000000e+00
37, 3, 4.214500e+02, 0.000000e+00, 5.486941e+01, 0.000000e+00, 1.520681e+02, 0.000000e+00
37, 4, 4.214500e+02, 0.000000e+00, 5.486941e+01, 0.000000e+00, 1.520681e+02, 0.000000e+00
37, 5, 4.214500e+02, 0.000000e+00, 5.486941e+01, 0.000000e+00, 1.520681e+02, 0.000000e+00
37, 6, 4.214500e+02, 0.000000e+00, 5.486941e+01, 0.000000e+00, 1.520681e+02, 0.000000e+00
37, 7, 4.214500e+02, 0.000000e+00, 5.486941e+01, 0.000000e+00, 1.520681e+02, 0.000000e+00
37, 8, 4.214500e+02, 0.000000e+00, 5.486941e+01, 0.000000e+00, 1.520681e+02, 0.000000e+00
38, 1, 4.211771e+02, 0.000000e+00, 5.544726e+01, 0.000000e+00, 1.528173e+02, 0.000000e+00
38, 2, 4.211771e+02, 0.000000e+00, 5.544726e+01, 0.000000e+00, 1.528173e+02, 0.000000e+00
38, 3, 4.211771e+02, 0.000000e+00, 5.544726e+01, 0.000000e+00, 1.528173e+02, 0.000000e+00
38, 4, 4.211771e+02, 0.000000e+00, 5.544726e+01, 0.000000e+00, 1.528173e+02, 0.000000e+00
38, 5, 4.211771e+02, 0.000000e+00, 5.544726e+01, 0.000000e+00, 1.528173e+02, 0.000000e+00
38, 6, 4.211771e+02, 0.000000e+00, 5.544726e+01, 0.000000e+00, 1.528173e+02, 0.000000e+00
38, 7, 4.211771e+02, 0.000000e+00, 5.544726e+01, 0.000000e+00, 1.528173e+02, 0.000000e+00
38, 8, 4.211771e+02, 0.000000e+00, 5.544726e+01, 0.000000e+00, 1.528173e+02, 0.000000e+00
39, 1, 4.209843e+02, 0.000000e+00, 5.586429e+01, 0.000000e+00, 1.533558e+02, 0.000000e+00
39, 2, 4.209843e+02, 0.000000e+00, 5.586429e+01, 0.000000e+00, 1.533558e+02, 0.000000e+00
39, 3, 4.209843e+02, 0.000000e+00, 5.586429e+01, 0.000000e+00, 1.533558e+02, 0.000000e+00
39, 4, 4.209843e+02, 0.000000e+00, 5.586429e+01, 0.000000e+00, 1.533558e+02, 0.000000e+00
39, 5, 4.209843e+02, 0.000000e+00, 5.586429e+01, 0.000000e+00, 1.533558e+02, 0.000000e+00
39, 6, 4.209843e+02, 0.000000e+00, 5.586429e+01, 0.000000e+00, 1.533558e+02, 0.000000e+00
39, 7, 4.209843e+02, 0.000000e+00, 5.586429e+01, 0.000000e+00, 1.533558e+02, 0.000000e+00
39, 8, 4.209843e+02, 0.000000e+00, 5.586429e+01, 0.000000e+00, 1.533558e+02, 0.000000e+00
40, 1, 4.208474e+02, 0.000000e+00, 5.615366e+01, 0.000000e+00, 1.537274e+02, 0.000000e+00
40, 2, 4.208474e+02, 0.000000e+00, 5.615366e+01, 0.000000e+00, 1.537274e+02, 0.000000e+00
40, 3, 4.208474e+02, 0.000000e+00, 5.615366e+01, 0.000000e+00, 1.537274e+02, 0.000000e+00
40, 4, 4.208474e+02, 0.000000e+00, 5.615366e+01, 0.000000e+00, 1.537274e+02, 0.000000e+00
40, 5, 4.208474e+02, 0.000000e+00, 5.615366e+01, 0.000000e+00, 1.537274e+02, 0.000000e+00
40, 6, 4.208474e+02, 0.000000e+00, 5.615366e+01, 0.000000e+00, 1.537274e+02, 0.000000e+00
40, 7, 4.208474e+02, 0.000000e+00, 5.615366e+01, 0.000000e+00, 1.537274e+02, 0.000000e+00
40, 8, 4.208474e+02, 0.000000e+00, 5.615366e+01, 0.000000e+00, 1.537274e+02, 0.000000e+00
41, 1, 4.206485e+02, 0.000000e+00, 5.657679e+01, 0.000000e+00, 1.542691e+02, 0.000000e+00
41, 2, 4.206485e+02, 0.000000e+00, 5.657679e+01, 0.000000e+00, 1.542691e+02, 0.000000e+00
41, 3, 4.206485e+02, 0.000000e+00, 5.657679e+01, 0.000000e+00, 1.542691e+02, 0.000000e+00
41, 4, 4.206485e+02, 0.000000e+00, 5.657679e+01, 0.000000e+00, 1.542691e+02, 0.000000e+00
41, 5, 4.206485e+02, 0.000000e+00, 5.657679e+01, 0.000000e+00, 1.542691e+02, 0.000000e+00
41, 6, 4.206485e+02, 0.000000e+00, 5.657679e+01, 0.000000e+00, 1.542691e+02, 0.000000e+00
41, 7, 4.206485e+02, 0.000000e+00, 5.657679e+01, 0.000000e+00, 1.542691e+02, 0.000000e+00
41, 8, 4.206485e+02, 0.000000e+00, 5.657679e+01, 0.000000e+00, 1.542691e+02, 0.000000e+00
42, 1, 4.194439e+02, 0.000000e+00, 5.914917e+01, 0.000000e+00, 1.575111e+02, 0.000000e+00
42, 2, 4.194439e+02, 0.000000e+00, 5.914917e+01, 0.000000e+00, 1.575111e+02, 0.000000e+00
42, 3, 4.194439e+02, 0.000000e+00, 5.914917e+01, 0.000000e+00, 1.575111e+02, 0.000000e+00
42, 4, 4.194439e+02, 0.000000e+00, 5.914917e+01, 0.000000e+00, 1.575111e+02, 0.000000e+00
42, 5, 4.194439e+02, 0.000000e+00, 5.914917e+01, 0.000000e+00, 1.575111e+02, 0.000000e+00
42, 6, 4.194439e+02, 0.000000e+00, 5.914917e+01, 0.000000e+00, 1.575111e+02, 0.000000e+00
42, 7, 4.194439e+02, 0.000000e+00, 5.914917e+01, 0.000000e+00, 1.575111e+02, 0.000000e+00
42, 8, 4.194439e+02, 0.000000e+00, 5.914917e+01, 0.000000e+00, 1.575111e+02, 0.000000e+00
43, 1, 4.192451e+02, 0.000000e+00, 5.957897e+01, 0.000000e+00, 1.580449e+02, 0.000000e+00
43, 2, 4.192451e+02, 0.000000e+00, 5.957897e+01, 0.000000e+00, 1.580449e+02, 0.000000e+00
43, 3, 4.192451e+02, 0.000000e+00, 5.957897e+01, 0.000000e+00, 1.580449e+02, 0.000000e+00
43, 4, 4.192451e+02, 0.000000e+00, 5.957897e+01, 0.000000e+00, 1.580449e+02, 0.000000e+00
43, 5, 4.192451e+02, 0.000000e+00, 5.957897e+01, 0.000000e+00, 1.580449e+02, 0.000000e+00
43, 6, 4.192451e+02, 0.000000e+00, 5.957897e+01, 0.000000e+00, 1.580449e+02, 0.000000e+00
43, 7, 4.192451e+02, 0.000000e+00, 5.957897e+01, 0.000000e+00, 1.580449e+02, 0.000000e+00
43, 8, 4.192451e+02, 0.000000e+00, 5.957897e+01, 0.000000e+00, 1.580449e+02, 0.000000e+00
44, 1, 4.191079e+02, 0.000000e+00, 5.987756e+01, 0.000000e+00, 1.584145e+02, 0.000000e+00
44, 2, 4.191079e+02, 0.000000e+00, 5.987756e+01, 0.000000e+00, 1.584145e+02, 0.000000e+00
44, 3, 4.191079e+02, 0.000000e+00, 5.987756e+01, 0.000000e+00, 1.584145e+02, 0.000000e+00
44, 4, 4.191079e+02, 0.000000e+00, 5.987756e+01, 0.000000e+00, 1.584145e+02, 0.000000e+00
44, 5, 4.191079e+02, 0.000000e+00, 5.987756e+01, 0.000000e+00, 1.584145e+02, 0.000000e+00
44, 6, 4.191079e+02, 0.000000e+00, 5.987756e+01, 0.000000e+00, 1.584145e+02, 0.000000e+00
44, 7, 4.191079e+02, 0.000000e+00, 5.987756e+01, 0.000000e+00, 1.584145e+02, 0.000000e+00
44, 8, 4.191079e+02, 0.000000e+00, 5.987756e+01, 0.000000e+00, 1.584145e+02, 0.000000e+00
45, 1, 4.189013e+02, 0.000000e+00, 6.031295e+01, 0.000000e+00, 1.589502e+02, 0.000000e+00
45, 2, 4.189013e+02, 0.000000e+00, 6.031295e+01, 0.000000e+00, 1.589502e+02, 0.000000e+00
45, 3, 4.189013e+02, 0.000000e+00, 6.031295e+01, 0.000000e+00, 1.589502e+02, 0.000000e+00
45, 4, 4.189013e+02, 0.000000e+00, 6.031295e+01, 0.000000e+00, 1.589502e+02, 0.000000e+00
45, 5, 4.189013e+02, 0.000000e+00, 6.031295e+01, 0.000000e+00, 1.589502e+02, 0.000000e+00
45, 6, 4.189013e+02, 0.000000e+00, 6.031295e+01, 0.000000e+00, 1.589502e+02, 0.000000e+00
45, 7, 4.189013e+02, 0.000000e+00, 6.031295e+01, 0.000000e+00, 1.589502e+02, 0.000000e+00
45, 8, 4.189013e+02, 0.000000e+00, 6.031295e+01, 0.000000e+00, 1.589502e+02, 0.000000e+00
46, 1, 4.186202e+02, 0.000000e+00, 6.091693e+01, 0.000000e+00, 1.596905e+02, 0.000000e+00
46, 2, 4.186202e+02, 0.000000e+00, 6.091693e+01, 0.000000e+00, 1.596905e+02, 0.000000e+00
46, 3, 4.186202e+02, 0.000000e+00, 6.091693e+01, 0.000000e+00, 1.596905e+02, 0.000000e+00
46, 4, 4.186202e+02, 0.000000e+00, 6.091693e+01, 0.000000e+00, 1.596905e+02, 0.000000e+00
46, 5, 4.186202e+02, 0.000000e+00, 6.091693e+01, 0.000000e+00, 1.596905e+02, 0.000000e+00
46, 6, 4.186202e+02, 0.000000e+00, 6.091693e+01, 0.000000e+00, 1.596905e+02, 0.000000e+00
46, 7, 4.186202e+02, 0.000000e+00, 6.091693e+01, 0.000000e+00, 1.596905e+02, 0.000000e+00
46, 8, 4.186202e+02, 0.000000e+00, 6.091693e+01, 0.000000e+00, 1.596905e+02, 0.000000e+00
47, 1, 4.184197e+02, 0.000000e+00, 6.135283e+01, 0.000000e+00, 1.602225e+02, 0.000000e+00
47, 2, 4.184197e+02, 0.000000e+00, 6.135283e+01, 0.000000e+00, 1.602225e+02, 0.000000e+00
47, 3, 4.184197e+02, 0.000000e+00, 6.135283e+01, 0.000000e+00, 1.602225e+02, 0.000000e+00
47, 4, 4.184197e+02, 0.000000e+00, 6.135283e+01, 0.000000e+00, 1.602225e+02, 0.000000e+00
47, 5, 4.184197e+02, 0.000000e+00, 6.135283e+01, 0.000000e+00, 1.602225e+02, 0.000000e+00
47, 6, 4.184197e+02, 0.000000e+00, 6.135283e+01, 0.000000e+00, 1.602225e+02, 0.000000e+00
47, 7, 4.184197e+02, 0.000000e+00, 6.135283e+01, 0.000000e+00, 1.602225e+02, 0.000000e+00
47, 8, 4.184197e+02, 0.000000e+00, 6.135283e+01, 0.000000e+00, 1.602225e+02, 0.000000e+00
48, 1, 4.182788e+02, 0.000000e+00, 6.165518e+01, 0.000000e+00, 1.605897e+02, 0.000000e+00
48, 2, 4.182788e+02, 0.000000e+00, 6.165518e+01, 0.000000e+00, 1.605897e+02, 0.000000e+00
48, 3, 4.182788e+02, 0.000000e+00, 6.165518e+01, 0.000000e+00, 1.605897e+02, 0.000000e+00
48, 4, 4.182788e+02, 0.000000e+00, 6.165518e+01, 0.000000e+00, 1.605897e+02, 0.000000e+00
48, 5, 4.182788e+02, 0.000000e+00, 6.165518e+01, 0.000000e+00, 1.605897e+02, 0.000000e+00
48, 6, 4.182788e+02, 0.000000e+00, 6.165518e+01, 0.000000e+00, 1.605897e+02, 0.000000e+00
48, 7, 4.182788e+02, 0.000000e+00, 6.165518e+01, 0.000000e+00, 1.605897e+02, 0.000000e+00
48, 8, 4.182788e+02, 0.000000e+00, 6.165518e+01, 0.000000e+00, 1.605897e+02, 0.000000e+00
49, 1, 4.180706e+02, 0.000000e+00, 6.209655e+01, 0.000000e+00, 1.611234e+02, 0.000000e+00
49, 2, 4.180706e+02, 0.000000e+00, 6.209655e+01, 0.000000e+00, 1.611234e+02, 0.000000e+00
49, 3, 4.180706e+02, 0.000000e+00, 6.209655e+01, 0.000000e+00, 1.611234e+02, 0.000000e+00
49, 4, 4.180706e+02, 0.000000e+00, 6.209655e+01, 0.000000e+00, 1.611234e+02, 0.000000e+00
49, 5, 4.180706e+02, 0.000000e+00, 6.209655e+01, 0.000000e+00, 1.611234e+02, 0.000000e+00
49, 6, 4.180706e+02, 0.000000e+00, 6.209655e+01, 0.000000e+00, 1.611234e+02, 0.000000e+00
49, 7, 4.180706e+02, 0.000000e+00, 6.209655e+01, 0.000000e+00, 1.611234e+02, 0.000000e+00
49, 8, 4.180706e+02, 0.000000e+00, 6.209655e+01, 0.000000e+00, 1.611234e+02, 0.000000e+00
50, 1, 4.177859e+02, 0.000000e+00, 6.270863e+01, 0.000000e+00, 1.618604e+02, 0.000000e+00
50, 2, 4.177859e+02, 0.000000e+00, 6.270863e+01, 0.000000e+00, 1.618604e+02, 0.000000e+00
50, 3, 4.177859e+02, 0.000000e+00, 6.270863e+01, 0.000000e+00, 1.618604e+02, 0.000000e+00
50, 4, 4.177859e+02, 0.000000e+00, 6.270863e+01, 0.000000e+00, 1.618604e+02, 0.000000e+00
50, 5, 4.177859e+02, 0.000000e+00, 6.270863e+01, 0.000000e+00, 1.618604e+02, 0.000000e+00
50, 6, 4.177859e+02, 0.000000e+00, 6.270863e+01, 0.000000e+00, 1.618604e+02, 0.000000e+00
50, 7, 4.177859e+02, 0.000000e+00, 6.270863e+01, 0.000000e+00, 1.618604e+02, 0.000000e+00
50, 8, 4.177859e+02, 0.000000e+00, 6.270863e+01, 0.000000e+00, 1.618604e+02, 0.000000e+00
51, 1, 4.175819e+02, 0.000000e+00, 6.315032e+01, 0.000000e+00, 1.623897e+02, 0.000000e+00
51, 2, 4.175819e+02, 0.000000e+00, 6.315032e+01, 0.000000e+00, 1.623897e+02, 0.000000e+00
51, 3, 4.175819e+02, 0.000000e+00, 6.315032e+01, 0.000000e+00, 1.623897e+02, 0.000000e+00
51, 4, 4.175819e+02, 0.000000e+00, 6.315032e+01, 0.000000e+00, 1.623897e+02, 0.000000e+00
51, 5, 4.175819e+02, 0.000000e+00, 6.315032e+01, 0.000000e+00, 1.623897e+02, 0.000000e+00
51, 6, 4.175819e+02, 0.000000e+00, 6.315032e+01, 0.000000e+00, 1.623897e+02, 0.000000e+00
51, 7, 4.175819e+02, 0.000000e+00, 6.315032e+01, 0.000000e+00, 1.623897e+02, 0.000000e+00
51, 8, 4.175819e+02, 0.000000e+00, 6.315032e+01, 0.000000e+00, 1.623897e+02, 0.000000e+00
52, 1, 4.174412e+02, 0.000000e+00, 6.345698e+01, 0.000000e+00, 1.627561e+02, 0.000000e+00
52, 2, 4.174412e+02, 0.000000e+00, 6.345698e+01, 0.000000e+00, 1.627561e+02, 0.000000e+00
52, 3, 4.174412e+02, 0.000000e+00, 6.345698e+01, 0.000000e+00, 1.627561e+02, 0.000000e+00
52, 4, 4.174412e+02, 0.000000e+00, 6.345698e+01, 0.000000e+00, 1.627561e+02, 0.000000e+00
52, 5, 4.174412e+02, 0.000000e+00, 6.345698e+01, 0.000000e+00, 1.627561e+02, 0.000000e+00
52, 6, 4.174412e+02, 0.000000e+00, 6.345698e+01, 0.000000e+00, 1.627561e+02, 0.000000e+00
52, 7, 4.174412e+02, 0.000000e+00, 6.345698e+01, 0.000000e+00, 1.627561e+02, 0.000000e+00
52, 8, 4.174412e+02, 0.000000e+00, 6.345698e+01, 0.000000e+00, 1.627561e+02, 0.000000e+00
53, 1, 4.172315e+02, 0.000000e+00, 6.390431e+01, 0.000000e+00, 1.632878e+02, 0.000000e+00
53, 2, 4.172315e+02, 0.000000e+00, 6.390431e+01, 0.000000e+00, 1.632878e+02, 0.000000e+00
53, 3, 4.172315e+02, 0.000000e+00, 6.390431e+01, 0.000000e+00, 1.632878e+02, 0.000000e+00
53, 4, 4.172315e+02, 0.000000e+00, 6.390431e+01, 0.000000e+00, 1.632878e+02, 0.000000e+00
53, 5, 4.172315e+02, 0.000000e+00, 6.390431e+01, 0.000000e+00, 1.632878e+02, 0.000000e+00
53, 6, 4.172315e+02, 0.000000e+00, 6.390431e+01, 0.000000e+00, 1.632878e+02, 0.000000e+00
53, 7, 4.172315e+02, 0.000000e+00, 6.390431e+01, 0.000000e+00, 1.632878e+02, 0.000000e+00
53, 8, 4.172315e+02, 0.000000e+00, 6.390431e+01, 0.000000e+00, 1.632878e+02, 0.000000e+00
54, 1, 4.170038e+02, 0.000000e+00, 6.438989e+01, 0.000000e+00, 1.638622e+02, 0.000000e+00
54, 2, 4.170038e+02, 0.000000e+00, 6.438989e+01, 0.000000e+00, 1.638622e+02, 0.000000e+00
54, 3, 4.170038e+02, 0.000000e+00, 6.438989e+01, 0.000000e+00, 1.638622e+02, 0.000000e+00
54, 4, 4.170038e+02, 0.000000e+00, 6.438989e+01, 0.000000e+00, 1.638622e+02, 0.000000e+00
54, 5, 4.170038e+02, 0.000000e+00, 6.438989e+01, 0.000000e+00, 1.638622e+02, 0.000000e+00
54, 6, 4.170038e+02, 0.000000e+00, 6.438989e+01, 0.000000e+00, 1.638622e+02, 0.000000e+00
54, 7, 4.170038e+02, 0.000000e+00, 6.438989e+01, 0.000000e+00, 1.638622e+02, 0.000000e+00
54, 8, 4.170038e+02, 0.000000e+00, 6.438989e+01, 0.000000e+00, 1.638622e+02, 0.000000e+00
55, 1, 4.168336e+02, 0.000000e+00, 6.475966e+01, 0.000000e+00, 1.642985e+02, 0.000000e+00
55, 2, 4.168336e+02, 0.000000e+00, 6.475966e+01, 0.000000e+00, 1.642985e+02, 0.000000e+00
55, 3, 4.168336e+02, 0.000000e+00, 6.475966e+01, 0.000000e+00, 1.642985e+02, 0.000000e+00
55, 4, 4.168336e+02, 0.000000e+00, 6.475966e+01, 0.000000e+00, 1.642985e+02, 0.000000e+00
55, 5, 4.168336e+02, 0.000000e+00, 6.475966e+01, 0.000000e+00, 1.642985e+02, 0.000000e+00
55, 6, 4.168336e+02, 0.000000e+00, 6.475966e+01, 0.000000e+00, 1.642985e+02, 0.000000e+00
55, 7, 4.168336e+02, 0.000000e+00, 6.475966e+01, 0.000000e+00, 1.642985e+02, 0.000000e+00
55, 8, 4.168336e+02, 0.000000e+00, 6.475966e+01, 0.000000e+00, 1.642985e+02, 0.000000e+00
56, 1, 4.166884e+02, 0.000000e+00, 6.507301e+01, 0.000000e+00, 1.646669e+02, 0.000000e+00
56, 2, 4.166884e+02, 0.000000e+00, 6.507301e+01, 0.000000e+00, 1.646669e+02, 0.000000e+00
56, 3, 4.166884e+02, 0.000000e+00, 6.507301e+01, 0.000000e+00, 1.646669e+02, 0.000000e+00
56, 4, 4.166884e+02, 0.000000e+00, 6.507301e+01, 0.000000e+00, 1.646669e+02, 0.000000e+00
56, 5, 4.166884e+02, 0.000000e+00, 6.507301e+01, 0.000000e+00, 1.646669e+02, 0.000000e+00
56, 6, 4.166884e+02, 0.000000e+00, 6.507301e+01, 0.000000e+00, 1.646669e+02, 0.000000e+00
56, 7, 4.166884e+02, 0.000000e+00, 6.507301e+01, 0.000000e+00, 1.646669e+02, 0.000000e+00
56, 8, 4.166884e+02, 0.000000e+00, 6.507301e+01, 0.000000e+00, 1.646669e+02, 0.000000e+00
57, 1, 4.165438e+02, 0.000000e+00, 6.538356e+01, 0.000000e+00, 1.650307e+02, 0.000000e+00
57, 2, 4.165438e+02, 0.000000e+00, 6.538356e+01, 0.000000e+00, 1.650307e+02, 0.000000e+00
57, 3, 4.165438e+02, 0.000000e+00, 6.538356e+01, 0.000000e+00, 1.650307e+02, 0.000000e+00
57, 4, 4.165438e+02, 0.000000e+00, 6.538356e+01, 0.000000e+00, 1.650307e+02, 0.000000e+00
57, 5, 4.165438e+02, 0.000000e+00, 6.538356e+01, 0.000000e+00, 1.650307e+02, 0.000000e+00
57, 6, 4.165438e+02, 0.000000e+00, 6.538356e+01, 0.000000e+00, 1.650307e+02, 0.000000e+00
57, 7, 4.165438e+02, 0.000000e+00, 6.538356e+01, 0.000000e+00, 1.650307e+02, 0.000000e+00
57, 8, 4.165438e+02, 0.000000e+00, 6.538356e+01, 0.000000e+00, 1.650307e+02, 0.000000e+00
58, 1, 4.163356e+02, 0.000000e+00, 6.583397e+01, 0.000000e+00, 1.655567e+02, 0.000000e+00
58, 2, 4.163356e+02, 0.000000e+00, 6.583397e+01, 0.000000e+00, 1.655567e+02, 0.000000e+00
58, 3, 4.163356e+02, 0.000000e+00, 6.583397e+01, 0.000000e+00, 1.655567e+02, 0.000000e+00
58, 4, 4.163356e+02, 0.000000e+00, 6.583397e+01, 0.000000e+00, 1.655567e+02, 0.000000e+00
58, 5, 4.163356e+02, 0.000000e+00, 6.583397e+01, 0.000000e+00, 1.655567e+02, 0.000000e+00
58, 6, 4.163356e+02, 0.000000e+00, 6.583397e+01, 0.000000e+00, 1.655567e+02, 0.000000e+00
58, 7, 4.163356e+02, 0.000000e+00, 6.583397e+01, 0.000000e+00, 1.655567e+02, 0.000000e+00
58, 8, 4.163356e+02, 0.000000e+00, 6.583397e+01, 0.000000e+00, 1.655567e+02, 0.000000e+00
59, 1, 4.160453e+02, 0.000000e+00, 6.646283e+01, 0.000000e+00, 1.662875e+02, 0.000000e+00
59, 2, 4.160453e+02, 0.000000e+00, 6.646283e+01, 0.000000e+00, 1.662875e+02, 0.000000e+00
59, 3, 4.160453e+02, 0.000000e+00, 6.646283e+01, 0.000000e+00, 1.662875e+02, 0.000000e+00
59, 4, 4.160453e+02, 0.000000e+00, 6.646283e+01, 0.000000e+00, 1.662875e+02, 0.000000e+00
59, 5, 4.160453e+02, 0.000000e+00, 6.646283e+01, 0.000000e+00, 1.662875e+02, 0.000000e+00
59, 6, 4.160453e+02, 0.000000e+00, 6.646283e+01, 0.000000e+00, 1.662875e+02, 0.000000e+00
59, 7, 4.160453e+02, 0.000000e+00, 6.646283e+01, 0.000000e+00, 1.662875e+02, 0.000000e+00
59, 8, 4.160453e+02, 0.000000e+00, 6.646283e+01, 0.000000e+00, 1.662875e+02, 0.000000e+00
60, 1, 4.158329e+02, 0.000000e+00, 6.691966e+01, 0.000000e+00, 1.668154e+02, 0.000000e+00
60, 2, 4.158329e+02, 0.000000e+00, 6.691966e+01, 0.000000e+00, 1.668154e+02, 0.000000e+00
60, 3, 4.158329e+02, 0.000000e+00, 6.691966e+01, 0.000000e+00, 1.668154e+02, 0.000000e+00
60, 4, 4.158329e+02, 0.000000e+00, 6.691966e+01, 0.000000e+00, 1.668154e+02, 0.000000e+00
60, 5, 4.158329e+02, 0.000000e+00, 6.691966e+01, 0.000000e+00, 1.668154e+02, 0.000000e+00
60, 6, 4.158329e+02, 0.000000e+00, 6.691966e+01, 0.000000e+00, 1.668154e+02, 0.000000e+00
60, 7, 4.158329e+02, 0.000000e+00, 6.691966e+01, 0.000000e+00, 1.668154e+02, 0.000000e+00
60, 8, 4.158329e+02, 0.000000e+00, 6.691966e+01, 0.000000e+00, 1.668154e+02, 0.000000e+00
61, 1, 4.156865e+02, 0.000000e+00, 6.723419e+01, 0.000000e+00, 1.671776e+02, 0.000000e+00
61, 2, 4.156865e+02, 0.000000e+00, 6.723419e+01, 0.000000e+00, 1.671776e+02, 0.000000e+00
61, 3, 4.156865e+02, 0.000000e+00, 6.723419e+01, 0.000000e+00, 1.671776e+02, 0.000000e+00
61, 4, 4.156865e+02, 0.000000e+00, 6.723419e+01, 0.000000e+00, 1.671776e+02, 0.000000e+00
61, 5, 4.156865e+02, 0.000000e+00, 6.723419e+01, 0.000000e+00, 1.671776e+02, 0.000000e+00
61, 6, 4.156865e+02, 0.000000e+00, 6.723419e+01, 0.000000e+00, 1.671776e+02, 0.000000e+00
61, 7, 4.156865e+02, 0.000000e+00, 6.723419e+01, 0.000000e+00, 1.671776e+02, 0.000000e+00
61, 8, 4.156865e+02, 0.000000e+00, 6.723419e+01, 0.000000e+00, 1.671776e+02, 0.000000e+00
62, 1, 4.154767e+02, 0.000000e+00, 6.769061e+01, 0.000000e+00, 1.677017e+02, 0.000000e+00
62, 2, 4.154767e+02, 0.000000e+00, 6.769061e+01, 0.000000e+00, 1.677017e+02, 0.000000e+00
62, 3, 4.154767e+02, 0.000000e+00, 6.769061e+01, 0.000000e+00, 1.677017e+02, 0.000000e+00
62, 4, 4.154767e+02, 0.000000e+00, 6.769061e+01, 0.000000e+00, 1.677017e+02, 0.000000e+00
62, 5, 4.154767e+02, 0.000000e+00, 6.769061e+01, 0.000000e+00, 1.677017e+02, 0.000000e+00
62, 6, 4.154767e+02, 0.000000e+00, 6.769061e+01, 0.000000e+00, 1.677017e+02, 0.000000e+00
62, 7, 4.154767e+02, 0.000000e+00, 6.769061e+01, 0.000000e+00, 1.677017e+02, 0.000000e+00
62, 8, 4.154767e+02, 0.000000e+00, 6.769061e+01, 0.000000e+00, 1.677017e+02, 0.000000e+00
63, 1, 4.151830e+02, 0.000000e+00, 6.832746e+01, 0.000000e+00, 1.684292e+02, 0.000000e+00
63, 2, 4.151830e+02, 0.000000e+00, 6.832746e+01, 0.000000e+00, 1.684292e+02, 0.000000e+00
63, 3, 4.151830e+02, 0.000000e+00, 6.832746e+01, 0.000000e+00, 1.684292e+02, 0.000000e+00
63, 4, 4.151830e+02, 0.000000e+00, 6.832746e+01, 0.000000e+00, 1.684292e+02, 0.000000e+00
63, 5, 4.151830e+02, 0.000000e+00, 6.832746e+01, 0.000000e+00, 1.684292e+02, 0.000000e+00
63, 6, 4.151830e+02, 0.000000e+00, 6.832746e+01, 0.000000e+00, 1.684292e+02, 0.000000e+00
63, 7, 4.151830e+02, 0.000000e+00, 6.832746e+01, 0.000000e+00, 1.684292e+02, 0.000000e+00
63, 8, 4.151830e+02, 0.000000e+00, 6.832746e+01, 0.000000e+00, 1.684292e+02, 0.000000e+00
64, 1, 4.149691e+02, 0.000000e+00, 6.879020e+01, 0.000000e+00, 1.689550e+02, 0.000000e+00
64, 2, 4.149691e+02, 0.000000e+00, 6.879020e+01, 0.000000e+00, 1.689550e+02, 0.000000e+00
64, 3, 4.149691e+02, 0.000000e+00, 6.879020e+01, 0.000000e+00, 1.689550e+02, 0.000000e+00
64, 4, 4.149691e+02, 0.000000e+00, 6.879020e+01, 0.000000e+00, 1.689550e+02, 0.000000e+00
64, 5, 4.149691e+02, 0.000000e+00, 6.879020e+01, 0.000000e+00, 1.689550e+02, 0.000000e+00
64, 6, 4.149691e+02, 0.000000e+00, 6.879020e+01, 0.000000e+00, 1.689550e+02, 0.000000e+00
64, 7, 4.149691e+02, 0.000000e+00, 6.879020e+01, 0.000000e+00, 1.689550e+02, 0.000000e+00
64, 8, 4.149691e+02, 0.000000e+00, 6.879020e+01, 0.000000e+00, 1.689550e+02, 0.000000e+00
65, 1, 4.148210e+02, 0.000000e+00, 6.910869e+01, 0.000000e+00, 1.693155e+02, 0.000000e+00
65, 2, 4.148210e+02, 0.000000e+00, 6.910869e+01, 0.000000e+00, 1.693155e+02, 0.000000e+00
65, 3, 4.148210e+02, 0.000000e+00, 6.910869e+01, 0.000000e+00, 1.693155e+02, 0.000000e+00
65, 4, 4.148210e+02, 0.000000e+00, 6.910869e+01, 0.000000e+00, 1.693155e+02, 0.000000e+00
65, 5, 4.148210e+02, 0.000000e+00, 6.910869e+01, 0.000000e+00, 1.693155e+02, 0.000000e+00
65, 6, 4.148210e+02, 0.000000e+00, 6.910869e+01, 0.000000e+00, 1.693155e+02, 0.000000e+00
65, 7, 4.148210e+02, 0.000000e+00, 6.910869e+01, 0.000000e+00, 1.693155e+02, 0.000000e+00
65, 8, 4.148210e+02, 0.000000e+00, 6.910869e+01, 0.000000e+00, 1.693155e+02, 0.000000e+00
66, 1, 4.146078e+02, 0.000000e+00, 6.957080e+01, 0.000000e+00, 1.698370e+02, 0.000000e+00
66, 2, 4.146078e+02, 0.000000e+00, 6.957080e+01, 0.000000e+00, 1.698370e+02, 0.000000e+00
66, 3, 4.146078e+02, 0.000000e+00, 6.957080e+01, 0.000000e+00, 1.698370e+02, 0.000000e+00
66, 4, 4.146078e+02, 0.000000e+00, 6.957080e+01, 0.000000e+00, 1.698370e+02, 0.000000e+00
66, 5, 4.146078e+02, 0.000000e+00, 6.957080e+01, 0.000000e+00, 1.698370e+02, 0.000000e+00
66, 6, 4.146078e+02, 0.000000e+00, 6.957080e+01, 0.000000e+00, 1.698370e+02, 0.000000e+00
66, 7, 4.146078e+02, 0.000000e+00, 6.957080e+01, 0.000000e+00, 1.698370e+02, 0.000000e+00
66, 8, 4.146078e+02, 0.000000e+00, 6.957080e+01, 0.000000e+00, 1.698370e+02, 0.000000e+00
67, 1, 4.143106e+02, 0.000000e+00, 7.021559e+01, 0.000000e+00, 1.705610e+02, 0.000000e+00
67, 2, 4.143106e+02, 0.000000e+00, 7.021559e+01, 0.000000e+00, 1.705610e+02, 0.000000e+00
67, 3, 4.143106e+02, 0.000000e+00, 7.021559e+01, 0.000000e+00, 1.705610e+02, 0.000000e+00
67, 4, 4.143106e+02, 0.000000e+00, 7.021559e+01, 0.000000e+00, 1.705610e+02, 0.000000e+00
67, 5, 4.143106e+02, 0.000000e+00, 7.021559e+01, 0.000000e+00, 1.705610e+02, 0.000000e+00
67, 6, 4.143106e+02, 0.000000e+00, 7.021559e+01, 0.000000e+00, 1.705610e+02, 0.000000e+00
67, 7, 4.143106e+02, 0.000000e+00, 7.021559e+01, 0.000000e+00, 1.705610e+02, 0.000000e+00
67, 8, 4.143106e+02, 0.000000e+00, 7.021559e+01, 0.000000e+00, 1.705610e+02, 0.000000e+00
68, 1, 4.140463e+02, 0.000000e+00, 7.078480e+01, 0.000000e+00, 1.711963e+02, 0.000000e+00
68, 2, 4.140463e+02, 0.000000e+00, 7.078480e+01, 0.000000e+00, 1.711963e+02, 0.000000e+00
68, 3, 4.140463e+02, 0.000000e+00, 7.078480e+01, 0.000000e+00, 1.711963e+02, 0.000000e+00
68, 4, 4.140463e+02, 0.000000e+00, 7.078480e+01, 0.000000e+00, 1.711963e+02, 0.000000e+00
68, 5, 4.140463e+02, 0.000000e+00, 7.078480e+01, 0.000000e+00, 1.711963e+02, 0.000000e+00
68, 6, 4.140463e+02, 0.000000e+00, 7.078480e+01, 0.000000e+00, 1.711963e+02, 0.000000e+00
68, 7, 4.140463e+02, 0.000000e+00, 7.078480e+01, 0.000000e+00, 1.711963e+02, 0.000000e+00
68, 8, 4.140463e+02, 0.000000e+00, 7.078480e+01, 0.000000e+00, 1.711963e+02, 0.000000e+00
69, 1, 4.138983e+02, 0.000000e+00, 7.110775e+01, 0.000000e+00, 1.715557e+02, 0.000000e+00
69, 2, 4.138983e+02, 0.000000e+00, 7.110775e+01, 0.000000e+00, 1.715557e+02, 0.000000e+00
69, 3, 4.138983e+02, 0.000000e+00, 7.110775e+01, 0.000000e+00, 1.715557e+02, 0.000000e+00
69, 4, 4.138983e+02, 0.000000e+00, 7.110775e+01, 0.000000e+00, 1.715557e+02, 0.000000e+00
69, 5, 4.138983e+02, 0.000000e+00, 7.110775e+01, 0.000000e+00, 1.715557e+02, 0.000000e+00
69, 6, 4.138983e+02, 0.000000e+00, 7.110775e+01, 0.000000e+00, 1.715557e+02, 0.000000e+00
69, 7, 4.138983e+02, 0.000000e+00, 7.110775e+01, 0.000000e+00, 1.715557e+02, 0.000000e+00
69, 8, 4.138983e+02, 0.000000e+00, 7.110775e+01, 0.000000e+00, 1.715557e+02, 0.000000e+00
70, 1, 4.136833e+02, 0.000000e+00, 7.157611e+01, 0.000000e+00, 1.720751e+02, 0.000000e+00
70, 2, 4.136833e+02, 0.000000e+00, 7.157611e+01, 0.000000e+00, 1.720751e+02, 0.000000e+00
70, 3, 4.136833e+02, 0.000000e+00, 7.157611e+01, 0.000000e+00, 1.720751e+02, 0.000000e+00
70, 4, 4.136833e+02, 0.000000e+00, 7.157611e+01, 0.000000e+00, 1.720751e+02, 0.000000e+00
70, 5, 4.136833e+02, 0.000000e+00, 7.157611e+01, 0.000000e+00, 1.720751e+02, 0.000000e+00
70, 6, 4.136833e+02, 0.000000e+00, 7.157611e+01, 0.000000e+00, 1.720751e+02, 0.000000e+00
70, 7, 4.136833e+02, 0.000000e+00, 7.157611e+01, 0.000000e+00, 1.720751e+02, 0.000000e+00
70, 8, 4.136833e+02, 0.000000e+00, 7.157611e+01, 0.000000e+00, 1.720751e+02, 0.000000e+00
71, 1, 4.133842e+02, 0.000000e+00, 7.222953e+01, 0.000000e+00, 1.727963e+02, 0.000000e+00
71, 2, 4.133842e+02, 0.000000e+00, 7.222953e+01, 0.000000e+00, 1.727963e+02, 0.000000e+00
71, 3, 4.133842e+02, 0.000000e+00, 7.222953e+01, 0.000000e+00, 1.727963e+02, 0.000000e+00
71, 4, 4.133842e+02, 0.000000e+00, 7.222953e+01, 0.000000e+00, 1.727963e+02, 0.000000e+00
71, 5, 4.133842e+02, 0.000000e+00, 7.222953e+01, 0.000000e+00, 1.727963e+02, 0.000000e+00
71, 6, 4.133842e+02, 0.000000e+00, 7.222953e+01, 0.000000e+00, 1.727963e+02, 0.000000e+00
71, 7, 4.133842e+02, 0.000000e+00, 7.222953e+01, 0.000000e+00, 1.727963e+02, 0.000000e+00
71, 8, 4.133842e+02, 0.000000e+00, 7.222953e+01, 0.000000e+00, 1.727963e+02, 0.000000e+00
72, 1, 4.131654e+02, 0.000000e+00, 7.270396e+01, 0.000000e+00, 1.733169e+02, 0.000000e+00
72, 2, 4.131654e+02, 0.000000e+00, 7.270396e+01, 0.000000e+00, 1.733169e+02, 0.000000e+00
72, 3, 4.131654e+02, 0.000000e+00, 7.270396e+01, 0.000000e+00, 1.733169e+02, 0.000000e+00
72, 4, 4.131654e+02, 0.000000e+00, 7.270396e+01, 0.000000e+00, 1.733169e+02, 0.000000e+00
72, 5, 4.131654e+02, 0.000000e+00, 7.270396e+01, 0.000000e+00, 1.733169e+02, 0.000000e+00
72, 6, 4.131654e+02, 0.000000e+00, 7.270396e+01, 0.000000e+00, 1.733169e+02, 0.000000e+00
72, 7, 4.131654e+02, 0.000000e+00, 7.270396e+01, 0.000000e+00, 1.733169e+02, 0.000000e+00
72, 8, 4.131654e+02, 0.000000e+00, 7.270396e+01, 0.000000e+00, 1.733169e+02, 0.000000e+00
73, 1, 4.130137e+02, 0.000000e+00, 7.303051e+01, 0.000000e+00, 1.736738e+02, 0.000000e+00
73, 2, 4.130137e+02, 0.000000e+00, 7.303051e+01, 0.000000e+00, 1.736738e+02, 0.000000e+00
73, 3, 4.130137e+02, 0.000000e+00, 7.303051e+01, 0.000000e+00, 1.736738e+02, 0.000000e+00
73, 4, 4.130137e+02, 0.000000e+00, 7.303051e+01, 0.000000e+00, 1.736738e+02, 0.000000e+00
73, 5, 4.130137e+02, 0.000000e+00, 7.303051e+01, 0.000000e+00, 1.736738e+02, 0.000000e+00
73, 6, 4.130137e+02, 0.000000e+00, 7.303051e+01, 0.000000e+00, 1.736738e+02, 0.000000e+00
73, 7, 4.130137e+02, 0.000000e+00, 7.303051e+01, 0.000000e+00, 1.736738e+02, 0.000000e+00
73, 8, 4.130137e+02, 0.000000e+00, 7.303051e+01, 0.000000e+00, 1.736738e+02, 0.000000e+00
74, 1, 4.127972e+02, 0.000000e+00, 7.350483e+01, 0.000000e+00, 1.741912e+02, 0.000000e+00
74, 2, 4.127972e+02, 0.000000e+00, 7.350483e+01, 0.000000e+00, 1.741912e+02, 0.000000e+00
74, 3, 4.127972e+02, 0.000000e+00, 7.350483e+01, 0.000000e+00, 1.741912e+02, 0.000000e+00
74, 4, 4.127972e+02, 0.000000e+00, 7.350483e+01, 0.000000e+00, 1.741912e+02, 0.000000e+00
74, 5, 4.127972e+02, 0.000000e+00, 7.350483e+01, 0.000000e+00, 1.741912e+02, 0.000000e+00
74, 6, 4.127972e+02, 0.000000e+00, 7.350483e+01, 0.000000e+00, 1.741912e+02, 0.000000e+00
74, 7, 4.127972e+02, 0.000000e+00, 7.350483e+01, 0.000000e+00, 1.741912e+02, 0.000000e+00
74, 8, 4.127972e+02, 0.000000e+00, 7.350483e+01, 0.000000e+00, 1.741912e+02, 0.000000e+00
75, 1, 4.124947e+02, 0.000000e+00, 7.416612e+01, 0.000000e+00, 1.749089e+02, 0.000000e+00
75, 2, 4.124947e+02, 0.000000e+00, 7.416612e+01, 0.000000e+00, 1.749089e+02, 0.000000e+00
75, 3, 4.124947e+02, 0.000000e+00, 7.416612e+01, 0.000000e+00, 1.749089e+02, 0.000000e+00
75, 4, 4.124947e+02, 0.000000e+00, 7.416612e+01, 0.000000e+00, 1.749089e+02, 0.000000e+00
75, 5, 4.124947e+02, 0.000000e+00, 7.416612e+01, 0.000000e+00, 1.749089e+02, 0.000000e+00
75, 6, 4.124947e+02, 0.000000e+00, 7.416612e+01, 0.000000e+00, 1.749089e+02, 0.000000e+00
75, 7, 4.124947e+02, 0.000000e+00, 7.416612e+01, 0.000000e+00, 1.749089e+02, 0.000000e+00
75, 8, 4.124947e+02, 0.000000e+00, 7.416612e+01, 0.000000e+00, 1.749089e+02, 0.000000e+00
76, 1, 4.122727e+02, 0.000000e+00, 7.464605e+01, 0.000000e+00, 1.754267e+02, 0.000000e+00
76, 2, 4.122727e+02, 0.000000e+00, 7.464605e+01, 0.000000e+00, 1.754267e+02, 0.000000e+00
76, 3, 4.122727e+02, 0.000000e+00, 7.464605e+01, 0.000000e+00, 1.754267e+02, 0.000000e+00
76, 4, 4.122727e+02, 0.000000e+00, 7.464605e+01, 0.000000e+00, 1.754267e+02, 0.000000e+00
76, 5, 4.122727e+02, 0.000000e+00, 7.464605e+01, 0.000000e+00, 1.754267e+02, 0.000000e+00
76, 6, 4.122727e+02, 0.000000e+00, 7.464605e+01, 0.000000e+00, 1.754267e+02, 0.000000e+00
76, 7, 4.122727e+02, 0.000000e+00, 7.464605e+01, 0.000000e+00, 1.754267e+02, 0.000000e+00
76, 8, 4.122727e+02, 0.000000e+00, 7.464605e+01, 0.000000e+00, 1.754267e+02, 0.000000e+00
77, 1, 4.121212e+02, 0.000000e+00, 7.497684e+01, 0.000000e+00, 1.757827e+02, 0.000000e+00
77, 2, 4.121212e+02, 0.000000e+00, 7.497684e+01, 0.000000e+00, 1.757827e+02, 0.000000e+00
77, 3, 4.121212e+02, 0.000000e+00, 7.497684e+01, 0.000000e+00, 1.757827e+02, 0.000000e+00
77, 4, 4.121212e+02, 0.000000e+00, 7.497684e+01, 0.000000e+00, 1.757827e+02, 0.000000e+00
77, 5, 4.121212e+02, 0.000000e+00, 7.497684e+01, 0.000000e+00, 1.757827e+02, 0.000000e+00
77, 6, 4.121212e+02, 0.000000e+00, 7.497684e+01, 0.000000e+00, 1.757827e+02, 0.000000e+00
77, 7, 4.121212e+02, 0.000000e+00, 7.497684e+01, 0.000000e+00, 1.757827e+02, 0.000000e+00
77, 8, 4.121212e+02, 0.000000e+00, 7.497684e+01, 0.000000e+00, 1.757827e+02, 0.000000e+00
78, 1, 4.119014e+02, 0.000000e+00, 7.545675e+01, 0.000000e+00, 1.762973e+02, 0.000000e+00
78, 2, 4.119014e+02, 0.000000e+00, 7.545675e+01, 0.000000e+00, 1.762973e+02, 0.000000e+00
78, 3, 4.119014e+02, 0.000000e+00, 7.545675e+01, 0.000000e+00, 1.762973e+02, 0.000000e+00
78, 4, 4.119014e+02, 0.000000e+00, 7.545675e+01, 0.000000e+00, 1.762973e+02, 0.000000e+00
78, 5, 4.119014e+02, 0.000000e+00, 7.545675e+01, 0.000000e+00, 1.762973e+02, 0.000000e+00
78, 6, 4.119014e+02, 0.000000e+00, 7.545675e+01, 0.000000e+00, 1.762973e+02, 0.000000e+00
78, 7, 4.119014e+02, 0.000000e+00, 7.545675e+01, 0.000000e+00, 1.762973e+02, 0.000000e+00
78, 8, 4.119014e+02, 0.000000e+00, 7.545675e+01, 0.000000e+00, 1.762973e+02, 0.000000e+00
79, 1, 4.115956e+02, 0.000000e+00, 7.612587e+01, 0.000000e+00, 1.770115e+02, 0.000000e+00
79, 2, 4.115956e+02, 0.000000e+00, 7.612587e+01, 0.000000e+00, 1.770115e+02, 0.000000e+00
79, 3, 4.115956e+02, 0.000000e+00, 7.612587e+01, 0.000000e+00, 1.770115e+02, 0.000000e+00
79, 4, 4.115956e+02, 0.000000e+00, 7.612587e+01, 0.000000e+00, 1.770115e+02, 0.000000e+00
79, 5, 4.115956e+02, 0.000000e+00, 7.612587e+01, 0.000000e+00, 1.770115e+02, 0.000000e+00
79, 6, 4.115956e+02, 0.000000e+00, 7.612587e+01, 0.000000e+00, 1.770115e+02, 0.000000e+00
79, 7, 4.115956e+02, 0.000000e+00, 7.612587e+01, 0.000000e+00, 1.770115e+02, 0.000000e+00
79, 8, 4.115956e+02, 0.000000e+00, 7.612587e+01, 0.000000e+00, 1.770115e+02, 0.000000e+00
80, 1, 4.113741e+02, 0.000000e+00, 7.661197e+01, 0.000000e+00, 1.775280e+02, 0.000000e+00
80, 2, 4.113741e+02, 0.000000e+00, 7.661197e+01, 0.000000e+00, 1.775280e+02, 0.000000e+00
80, 3, 4.113741e+02, 0.000000e+00, 7.661197e+01, 0.000000e+00, 1.775280e+02, 0.000000e+00
80, 4, 4.113741e+02, 0.000000e+00, 7.661197e+01, 0.000000e+00, 1.775280e+02, 0.000000e+00
80, 5, 4.113741e+02, 0.000000e+00, 7.661197e+01, 0.000000e+00, 1.775280e+02, 0.000000e+00
80, 6, 4.113741e+02, 0.000000e+00, 7.661197e+01, 0.000000e+00, 1.775280e+02, 0.000000e+00
80, 7, 4.113741e+02, 0.000000e+00, 7.661197e+01, 0.000000e+00, 1.775280e+02, 0.000000e+00
80, 8, 4.113741e+02, 0.000000e+00, 7.661197e+01, 0.000000e+00, 1.775280e+02, 0.000000e+00
81, 1, 4.102025e+02, 0.000000e+00, 7.917594e+01, 0.000000e+00, 1.802170e+02, 0.000000e+00
81, 2, 4.102025e+02, 0.000000e+00, 7.917594e+01, 0.000000e+00, 1.802170e+02, 0.000000e+00
81, 3, 4.102025e+02, 0.000000e+00, 7.917594e+01, 0.000000e+00, 1.802170e+02, 0.000000e+00
81, 4, 4.102025e+02, 0.000000e+00, 7.917594e+01, 0.000000e+00, 1.802170e+02, 0.000000e+00
81, 5, 4.102025e+02, 0.000000e+00, 7.917594e+01, 0.000000e+00, 1.802170e+02, 0.000000e+00
81, 6, 4.102025e+02, 0.000000e+00, 7.917594e+01, 0.000000e+00, 1.802170e+02, 0.000000e+00
81, 7, 4.102025e+02, 0.000000e+00, 7.917594e+01, 0.000000e+00, 1.802170e+02, 0.000000e+00
81, 8, 4.102025e+02, 0.000000e+00, 7.917594e+01, 0.000000e+00, 1.802170e+02, 0.000000e+00
82, 1, 4.099774e+02, 0.000000e+00, 7.966791e+01, 0.000000e+00, 1.807264e+02, 0.000000e+00
82, 2, 4.099774e+02, 0.000000e+00, 7.966791e+01, 0.000000e+00, 1.807264e+02, 0.000000e+00
82, 3, 4.099774e+02, 0.000000e+00, 7.966791e+01, 0.000000e+00, 1.807264e+02, 0.000000e+00
82, 4, 4.099774e+02, 0.000000e+00, 7.966791e+01, 0.000000e+00, 1.807264e+02, 0.000000e+00
82, 5, 4.099774e+02, 0.000000e+00, 7.966791e+01, 0.000000e+00, 1.807264e+02, 0.000000e+00
82, 6, 4.099774e+02, 0.000000e+00, 7.966791e+01, 0.000000e+00, 1.807264e+02, 0.000000e+00
82, 7, 4.099774e+02, 0.000000e+00, 7.966791e+01, 0.000000e+00, 1.807264e+02, 0.000000e+00
82, 8, 4.099774e+02, 0.000000e+00, 7.966791e+01, 0.000000e+00, 1.807264e+02, 0.000000e+00
83, 1, 4.096679e+02, 0.000000e+00, 8.035413e+01, 0.000000e+00, 1.814346e+02, 0.000000e+00
83, 2, 4.096679e+02, 0.000000e+00, 8.035413e+01, 0.000000e+00, 1.814346e+02, 0.000000e+00
83, 3, 4.096679e+02, 0.000000e+00, 8.035413e+01, 0.000000e+00, 1.814346e+02, 0.000000e+00
83, 4, 4.096679e+02, 0.000000e+00, 8.035413e+01, 0.000000e+00, 1.814346e+02, 0.000000e+00
83, 5, 4.096679e+02, 0.000000e+00, 8.035413e+01, 0.000000e+00, 1.814346e+02, 0.000000e+00
83, 6, 4.096679e+02, 0.000000e+00, 8.035413e+01, 0.000000e+00, 1.814346e+02, 0.000000e+00
83, 7, 4.096679e+02, 0.000000e+00, 8.035413e+01, 0.000000e+00, 1.814346e+02, 0.000000e+00
83, 8, 4.096679e+02, 0.000000e+00, 8.035413e+01, 0.000000e+00, 1.814346e+02, 0.000000e+00
84, 1, 4.094394e+02, 0.000000e+00, 8.085167e+01, 0.000000e+00, 1.819447e+02, 0.000000e+00
84, 2, 4.094394e+02, 0.000000e+00, 8.085167e+01, 0.000000e+00, 1.819447e+02, 0.000000e+00
84, 3, 4.094394e+02, 0.000000e+00, 8.085167e+01, 0.000000e+00, 1.819447e+02, 0.000000e+00
84, 4, 4.094394e+02, 0.000000e+00, 8.085167e+01, 0.000000e+00, 1.819447e+02, 0.000000e+00
84, 5, 4.094394e+02, 0.000000e+00, 8.085167e+01, 0.000000e+00, 1.819447e+02, 0.000000e+00
84, 6, 4.094394e+02, 0.000000e+00, 8.085167e+01, 0.000000e+00, 1.819447e+02, 0.000000e+00
84, 7, 4.094394e+02, 0.000000e+00, 8.085167e+01, 0.000000e+00, 1.819447e+02, 0.000000e+00
84, 8, 4.094394e+02, 0.000000e+00, 8.085167e+01, 0.000000e+00, 1.819447e+02, 0.000000e+00
85, 1, 4.092846e+02, 0.000000e+00, 8.119485e+01, 0.000000e+00, 1.822959e+02, 0.000000e+00
85, 2, 4.092846e+02, 0.000000e+00, 8.119485e+01, 0.000000e+00, 1.822959e+02, 0.000000e+00
85, 3, 4.092846e+02, 0.000000e+00, 8.119485e+01, 0.000000e+00, 1.822959e+02, 0.000000e+00
85, 4, 4.092846e+02, 0.000000e+00, 8.119485e+01, 0.000000e+00, 1.822959e+02, 0.000000e+00
85, 5, 4.092846e+02, 0.000000e+00, 8.119485e+01, 0.000000e+00, 1.822959e+02, 0.000000e+00
85, 6, 4.092846e+02, 0.000000e+00, 8.119485e+01, 0.000000e+00, 1.822959e+02, 0.000000e+00
85, 7, 4.092846e+02, 0.000000e+00, 8.119485e+01, 0.000000e+00, 1.822959e+02, 0.000000e+00
85, 8, 4.092846e+02, 0.000000e+00, 8.119485e+01, 0.000000e+00, 1.822959e+02, 0.000000e+00
86, 1, 4.090581e+02, 0.000000e+00, 8.169267e+01, 0.000000e+00, 1.828033e+02, 0.000000e+00
86, 2, 4.090581e+02, 0.000000e+00, 8.169267e+01, 0.000000e+00, 1.828033e+02, 0.000000e+00
86, 3, 4.090581e+02, 0.000000e+00, 8.169267e+01, 0.000000e+00, 1.828033e+02, 0.000000e+00
86, 4, 4.090581e+02, 0.000000e+00, 8.169267e+01, 0.000000e+00, 1.828033e+02, 0.000000e+00
86, 5, 4.090581e+02, 0.000000e+00, 8.169267e+01, 0.000000e+00, 1.828033e+02, 0.000000e+00
86, 6, 4.090581e+02, 0.000000e+00, 8.169267e+01, 0.000000e+00, 1.828033e+02, 0.000000e+00
86, 7, 4.090581e+02, 0.000000e+00, 8.169267e+01, 0.000000e+00, 1.828033e+02, 0.000000e+00
86, 8, 4.090581e+02, 0.000000e+00, 8.169267e+01, 0.000000e+00, 1.828033e+02, 0.000000e+00
87, 1, 4.087416e+02, 0.000000e+00, 8.238587e+01, 0.000000e+00, 1.835062e+02, 0.000000e+00
87, 2, 4.087416e+02, 0.000000e+00, 8.238587e+01, 0.000000e+00, 1.835062e+02, 0.000000e+00
87, 3, 4.087416e+02, 0.000000e+00, 8.238587e+01, 0.000000e+00, 1.835062e+02, 0.000000e+00
87, 4, 4.087416e+02, 0.000000e+00, 8.238587e+01, 0.000000e+00, 1.835062e+02, 0.000000e+00
87, 5, 4.087416e+02, 0.000000e+00, 8.238587e+01, 0.000000e+00, 1.835062e+02, 0.000000e+00
87, 6, 4.087416e+02, 0.000000e+00, 8.238587e+01, 0.000000e+00, 1.835062e+02, 0.000000e+00
87, 7, 4.087416e+02, 0.000000e+00, 8.238587e+01, 0.000000e+00, 1.835062e+02, 0.000000e+00
87, 8, 4.087416e+02, 0.000000e+00, 8.238587e+01, 0.000000e+00, 1.835062e+02, 0.000000e+00
88, 1, 4.085137e+02, 0.000000e+00, 8.288953e+01, 0.000000e+00, 1.840150e+02, 0.000000e+00
88, 2, 4.085137e+02, 0.000000e+00, 8.288953e+01, 0.000000e+00, 1.840150e+02, 0.000000e+00
88, 3, 4.085137e+02, 0.000000e+00, 8.288953e+01, 0.000000e+00, 1.840150e+02, 0.000000e+00
88, 4, 4.085137e+02, 0.000000e+00, 8.288953e+01, 0.000000e+00, 1.840150e+02, 0.000000e+00
88, 5, 4.085137e+02, 0.000000e+00, 8.288953e+01, 0.000000e+00, 1.840150e+02, 0.000000e+00
88, 6, 4.085137e+02, 0.000000e+00, 8.288953e+01, 0.000000e+00, 1.840150e+02, 0.000000e+00
88, 7, 4.085137e+02, 0.000000e+00, 8.288953e+01, 0.000000e+00, 1.840150e+02, 0.000000e+00
88, 8, 4.085137e+02, 0.000000e+00, 8.288953e+01, 0.000000e+00, 1.840150e+02, 0.000000e+00
89, 1, 4.083555e+02, 0.000000e+00, 8.323616e+01, 0.000000e+00, 1.843636e+02, 0.000000e+00
89, 2, 4.083555e+02, 0.000000e+00, 8.323616e+01, 0.000000e+00, 1.843636e+02, 0.000000e+00
89, 3, 4.083555e+02, 0.000000e+00, 8.323616e+01, 0.000000e+00, 1.843636e+02, 0.000000e+00
89, 4, 4.083555e+02, 0.000000e+00, 8.323616e+01, 0.000000e+00, 1.843636e+02, 0.000000e+00
89, 5, 4.083555e+02, 0.000000e+00, 8.323616e+01, 0.000000e+00, 1.843636e+02, 0.000000e+00
89, 6, 4.083555e+02, 0.000000e+00, 8.323616e+01, 0.000000e+00, 1.843636e+02, 0.000000e+00
89, 7, 4.083555e+02, 0.000000e+00, 8.323616e+01, 0.000000e+00, 1.843636e+02, 0.000000e+00
89, 8, 4.083555e+02, 0.000000e+00, 8.323616e+01, 0.000000e+00, 1.843636e+02, 0.000000e+00
90, 1, 4.081295e+02, 0.000000e+00, 8.374021e+01, 0.000000e+00, 1.848698e+02, 0.000000e+00
90, 2, 4.081295e+02, 0.000000e+00, 8.374021e+01, 0.000000e+00, 1.848698e+02, 0.000000e+00
90, 3, 4.081295e+02, 0.000000e+00, 8.374021e+01, 0.000000e+00, 1.848698e+02, 0.000000e+00
90, 4, 4.081295e+02, 0.000000e+00, 8.374021e+01, 0.000000e+00, 1.848698e+02, 0.000000e+00
90, 5, 4.081295e+02, 0.000000e+00, 8.374021e+01, 0.000000e+00, 1.848698e+02, 0.000000e+00
90, 6, 4.081295e+02, 0.000000e+00, 8.374021e+01, 0.000000e+00, 1.848698e+02, 0.000000e+00
90, 7, 4.081295e+02, 0.000000e+00, 8.374021e+01, 0.000000e+00, 1.848698e+02, 0.000000e+00
90, 8, 4.081295e+02, 0.000000e+00, 8.374021e+01, 0.000000e+00, 1.848698e+02, 0.000000e+00
91, 1, 4.078098e+02, 0.000000e+00, 8.444107e+01, 0.000000e+00, 1.855691e+02, 0.000000e+00
91, 2, 4.078098e+02, 0.000000e+00, 8.444107e+01, 0.000000e+00, 1.855691e+02, 0.000000e+00
91, 3, 4.078098e+02, 0.000000e+00, 8.444107e+01, 0.000000e+00, 1.855691e+02, 0.000000e+00
91, 4, 4.078098e+02, 0.000000e+00, 8.444107e+01, 0.000000e+00, 1.855691e+02, 0.000000e+00
91, 5, 4.078098e+02, 0.000000e+00, 8.444107e+01, 0.000000e+00, 1.855691e+02, 0.000000e+00
91, 6, 4.078098e+02, 0.000000e+00, 8.444107e+01, 0.000000e+00, 1.855691e+02, 0.000000e+00
91, 7, 4.078098e+02, 0.000000e+00, 8.444107e+01, 0.000000e+00, 1.855691e+02, 0.000000e+00
91, 8, 4.078098e+02, 0.000000e+00, 8.444107e+01, 0.000000e+00, 1.855691e+02, 0.000000e+00
92, 1, 4.075788e+02, 0.000000e+00, 8.495008e+01, 0.000000e+00, 1.860749e+02, 0.000000e+00
92, 2, 4.075788e+02, 0.000000e+00, 8.495008e+01, 0.000000e+00, 1.860749e+02, 0.000000e+00
92, 3, 4.075788e+02, 0.000000e+00, 8.495008e+01, 0.000000e+00, 1.860749e+02, 0.000000e+00
92, 4, 4.075788e+02, 0.000000e+00, 8.495008e+01, 0.000000e+00, 1.860749e+02, 0.000000e+00
92, 5, 4.075788e+02, 0.000000e+00, 8.495008e+01, 0.000000e+00, 1.860749e+02, 0.000000e+00
92, 6, 4.075788e+02, 0.000000e+00, 8.495008e+01, 0.000000e+00, 1.860749e+02, 0.000000e+00
92, 7, 4.075788e+02, 0.000000e+00, 8.495008e+01, 0.000000e+00, 1.860749e+02, 0.000000e+00
92, 8, 4.075788e+02, 0.000000e+00, 8.495008e+01, 0.000000e+00, 1.860749e+02, 0.000000e+00
93, 1, 4.074190e+02, 0.000000e+00, 8.530052e+01, 0.000000e+00, 1.864217e+02, 0.000000e+00
93, 2, 4.074190e+02, 0.000000e+00, 8.530052e+01, 0.000000e+00, 1.864217e+02, 0.000000e+00
93, 3, 4.074190e+02, 0.000000e+00, 8.530052e+01, 0.000000e+00, 1.864217e+02, 0.000000e+00
93, 4, 4.074190e+02, 0.000000e+00, 8.530052e+01, 0.000000e+00, 1.864217e+02, 0.000000e+00
93, 5, 4.074190e+02, 0.000000e+00, 8.530052e+01, 0.000000e+00, 1.864217e+02, 0.000000e+00
93, 6, 4.074190e+02, 0.000000e+00, 8.530052e+01, 0.000000e+00, 1.864217e+02, 0.000000e+00
93, 7, 4.074190e+02, 0.000000e+00, 8.530052e+01, 0.000000e+00, 1.864217e+02, 0.000000e+00
93, 8, 4.074190e+02, 0.000000e+00, 8.530052e+01, 0.000000e+00, 1.864217e+02, 0.000000e+00
94, 1, 4.071414e+02, 0.000000e+00, 8.591888e+01, 0.000000e+00, 1.870324e+02, 0.000000e+00
94, 2, 4.071414e+02, 0.000000e+00, 8.591888e+01, 0.000000e+00, 1.870324e+02, 0.000000e+00
94, 3, 4.071414e+02, 0.000000e+00, 8.591888e+01, 0.000000e+00, 1.870324e+02, 0.000000e+00
94, 4, 4.071414e+02, 0.000000e+00, 8.591888e+01, 0.000000e+00, 1.870324e+02, 0.000000e+00
94, 5, 4.071414e+02, 0.000000e+00, 8.591888e+01, 0.000000e+00, 1.870324e+02, 0.000000e+00
94, 6, 4.071414e+02, 0.000000e+00, 8.591888e+01, 0.000000e+00, 1.870324e+02, 0.000000e+00
94, 7, 4.071414e+02, 0.000000e+00, 8.591888e+01, 0.000000e+00, 1.870324e+02, 0.000000e+00
94, 8, 4.071414e+02, 0.000000e+00, 8.591888e+01, 0.000000e+00, 1.870324e+02, 0.000000e+00
95, 1, 4.068201e+02, 0.000000e+00, 8.662811e+01, 0.000000e+00, 1.877287e+02, 0.000000e+00
95, 2, 4.068201e+02, 0.000000e+00, 8.662811e+01, 0.000000e+00, 1.877287e+02, 0.000000e+00
95, 3, 4.068201e+02, 0.000000e+00, 8.662811e+01, 0.000000e+00, 1.877287e+02, 0.000000e+00
95, 4, 4.068201e+02, 0.000000e+00, 8.662811e+01, 0.000000e+00, 1.877287e+02, 0.000000e+00
95, 5, 4.068201e+02, 0.000000e+00, 8.662811e+01, 0.000000e+00, 1.877287e+02, 0.000000e+00
95, 6, 4.068201e+02, 0.000000e+00, 8.662811e+01, 0.000000e+00, 1.877287e+02, 0.000000e+00
95, 7, 4.068201e+02, 0.000000e+00, 8.662811e+01, 0.000000e+00, 1.877287e+02, 0.000000e+00
95, 8, 4.068201e+02, 0.000000e+00, 8.662811e+01, 0.000000e+00, 1.877287e+02, 0.000000e+00
96, 1, 4.065877e+02, 0.000000e+00, 8.714309e+01, 0.000000e+00, 1.882321e+02, 0.000000e+00
96, 2, 4.065877e+02, 0.000000e+00, 8.714309e+01, 0.000000e+00, 1.882321e+02, 0.000000e+00
96, 3, 4.065877e+02, 0.000000e+00, 8.714309e+01, 0.000000e+00, 1.882321e+02, 0.000000e+00
96, 4, 4.065877e+02, 0.000000e+00, 8.714309e+01, 0.000000e+00, 1.882321e+02, 0.000000e+00
96, 5, 4.065877e+02, 0.000000e+00, 8.714309e+01, 0.000000e+00, 1.882321e+02, 0.000000e+00
96, 6, 4.065877e+02, 0.000000e+00, 8.714309e+01, 0.000000e+00, 1.882321e+02, 0.000000e+00
96, 7, 4.065877e+02, 0.000000e+00, 8.714309e+01, 0.000000e+00, 1.882321e+02, 0.000000e+00
96, 8, 4.065877e+02, 0.000000e+00, 8.714309e+01, 0.000000e+00, 1.882321e+02, 0.000000e+00
97, 1, 4.064280e+02, 0.000000e+00, 8.749789e+01, 0.000000e+00, 1.885778e+02, 0.000000e+00
97, 2, 4.064280e+02, 0.000000e+00, 8.749789e+01, 0.000000e+00, 1.885778e+02, 0.000000e+00
97, 3, 4.064280e+02, 0.000000e+00, 8.749789e+01, 0.000000e+00, 1.885778e+02, 0.000000e+00
97, 4, 4.064280e+02, 0.000000e+00, 8.749789e+01, 0.000000e+00, 1.885778e+02, 0.000000e+00
97, 5, 4.064280e+02, 0.000000e+00, 8.749789e+01, 0.000000e+00, 1.885778e+02, 0.000000e+00
97, 6, 4.064280e+02, 0.000000e+00, 8.749789e+01, 0.000000e+00, 1.885778e+02, 0.000000e+00
97, 7, 4.064280e+02, 0.000000e+00, 8.749789e+01, 0.000000e+00, 1.885778e+02, 0.000000e+00
97, 8, 4.064280e+02, 0.000000e+00, 8.749789e+01, 0.000000e+00, 1.885778e+02, 0.000000e+00
98, 1, 4.061953e+02, 0.000000e+00, 8.801304e+01, 0.000000e+00, 1.890780e+02, 0.000000e+00
98, 2, 4.061953e+02, 0.000000e+00, 8.801304e+01, 0.000000e+00, 1.890780e+02, 0.000000e+00
98, 3, 4.061953e+02, 0.000000e+00, 8.801304e+01, 0.000000e+00, 1.890780e+02, 0.000000e+00
98, 4, 4.061953e+02, 0.000000e+00, 8.801304e+01, 0.000000e+00, 1.890780e+02, 0.000000e+00
98, 5, 4.061953e+02, 0.000000e+00, 8.801304e+01, 0.000000e+00, 1.890780e+02, 0.000000e+00
98, 6, 4.061953e+02, 0.000000e+00, 8.801304e+01, 0.000000e+00, 1.890780e+02, 0.000000e+00
98, 7, 4.061953e+02, 0.000000e+00, 8.801304e+01, 0.000000e+00, 1.890780e+02, 0.000000e+00
98, 8, 4.061953e+02, 0.000000e+00, 8.801304e+01, 0.000000e+00, 1.890780e+02, 0.000000e+00
99, 1, 4.058709e+02, 0.000000e+00, 8.872986e+01, 0.000000e+00, 1.897706e+02, 0.000000e+00
99, 2, 4.058709e+02, 0.000000e+00, 8.872986e+01, 0.000000e+00, 1.897706e+02, 0.000000e+00
99, 3, 4.058709e+02, 0.000000e+00, 8.872986e+01, 0.000000e+00, 1.897706e+02, 0.000000e+00
99, 4, 4.058709e+02, 0.000000e+00, 8.872986e+01, 0.000000e+00, 1.897706e+02, 0.000000e+00
99, 5, 4.058709e+02, 0.000000e+00, 8.872986e+01, 0.000000e+00, 1.897706e+02, 0.000000e+00
99, 6, 4.058709e+02, 0.000000e+00, 8.872986e+01, 0.000000e+00, 1.897706e+02, 0.000000e+00
99, 7, 4.058709e+02, 0.000000e+00, 8.872986e+01, 0.000000e+00, 1.897706e+02, 0.000000e+00
99, 8, 4.058709e+02, 0.000000e+00, 8.872986e+01, 0.000000e+00, 1.897706e+02, 0.000000e+00
100, 1, 4.056373e+02, 0.000000e+00, 8.925052e+01, 0.000000e+00, 1.902717e+02, 0.000000e+00
100, 2, 4.056373e+02, 0.000000e+00, 8.925052e+01, 0.000000e+00, 1.902717e+02, 0.000000e+00
100, 3, 4.056373e+02, 0.000000e+00, 8.925052e+01, 0.000000e+00, 1.902717e+02, 0.000000e+00
100, 4, 4.056373e+02, 0.000000e+00, 8.925052e+01, 0.000000e+00, 1.902717e+02, 0.000000e+00
100, 5, 4.056373e+02, 0.000000e+00, 8.925052e+01, 0.000000e+00, 1.902717e+02, 0.000000e+00
100, 6, 4.056373e+02, 0.000000e+00, 8.925052e+01, 0.000000e+00, 1.902717e+02, 0.000000e+00
100, 7, 4.056373e+02, 0.000000e+00, 8.925052e+01, 0.000000e+00, 1.902717e+02, 0.000000e+00
100, 8, 4.056373e+02, 0.000000e+00, 8.925052e+01, 0.000000e+00, 1.902717e+02, 0.000000e+00
101, 1, 4.054760e+02, 0.000000e+00, 8.960910e+01, 0.000000e+00, 1.906157e+02, 0.000000e+00
101, 2, 4.054760e+02, 0.000000e+00, 8.960910e+01, 0.000000e+00, 1.906157e+02, 0.000000e+00
101, 3, 4.054760e+02, 0.000000e+00, 8.960910e+01, 0.000000e+00, 1.906157e+02, 0.000000e+00
101, 4, 4.054760e+02, 0.000000e+00, 8.960910e+01, 0.000000e+00, 1.906157e+02, 0.000000e+00
101, 5, 4.054760e+02, 0.000000e+00, 8.960910e+01, 0.000000e+00, 1.906157e+02, 0.000000e+00
101, 6, 4.054760e+02, 0.000000e+00, 8.960910e+01, 0.000000e+00, 1.906157e+02, 0.000000e+00
101, 7, 4.054760e+02, 0.000000e+00, 8.960910e+01, 0.000000e+00, 1.906157e+02, 0.000000e+00
101, 8, 4.054760e+02, 0.000000e+00, 8.960910e+01, 0.000000e+00, 1.906157e+02, 0.000000e+00
102, 1, 4.052403e+02, 0.000000e+00, 9.012961e+01, 0.000000e+00, 1.911129e+02, 0.000000e+00
102, 2, 4.052403e+02, 0.000000e+00, 9.012961e+01, 0.000000e+00, 1.911129e+02, 0.000000e+00
102, 3, 4.052403e+02, 0.000000e+00, 9.012961e+01, 0.000000e+00, 1.911129e+02, 0.000000e+00
102, 4, 4.052403e+02, 0.000000e+00, 9.012961e+01, 0.000000e+00, 1.911129e+02, 0.000000e+00
102, 5, 4.052403e+02, 0.000000e+00, 9.012961e+01, 0.000000e+00, 1.911129e+02, 0.000000e+00
102, 6, 4.052403e+02, 0.000000e+00, 9.012961e+01, 0.000000e+00, 1.911129e+02, 0.000000e+00
102, 7, 4.052403e+02, 0.000000e+00, 9.012961e+01, 0.000000e+00, 1.911129e+02, 0.000000e+00
102, 8, 4.052403e+02, 0.000000e+00, 9.012961e+01, 0.000000e+00, 1.911129e+02, 0.000000e+00
103, 1, 4.049146e+02, 0.000000e+00, 9.085439e+01, 0.000000e+00, 1.918027e+02, 0.000000e+00
103, 2, 4.049146e+02, 0.000000e+00, 9.085439e+01, 0.000000e+00, 1.918027e+02, 0.000000e+00
103, 3, 4.049146e+02, 0.000000e+00, 9.085439e+01, 0.000000e+00, 1.918027e+02, 0.000000e+00
103, 4, 4.049146e+02, 0.000000e+00, 9.085439e+01, 0.000000e+00, 1.918027e+02, 0.000000e+00
103, 5, 4.049146e+02, 0.000000e+00, 9.085439e+01, 0.000000e+00, 1.918027e+02, 0.000000e+00
103, 6, 4.049146e+02, 0.000000e+00, 9.085439e+01, 0.000000e+00, 1.918027e+02, 0.000000e+00
103, 7, 4.049146e+02, 0.000000e+00, 9.085439e+01, 0.000000e+00, 1.918027e+02, 0.000000e+00
103, 8, 4.049146e+02, 0.000000e+00, 9.085439e+01, 0.000000e+00, 1.918027e+02, 0.000000e+00
104, 1, 4.046779e+02, 0.000000e+00, 9.138031e+01, 0.000000e+00, 1.923008e+02, 0.000000e+00
104, 2, 4.046779e+02, 0.000000e+00, 9.138031e+01, 0.000000e+00, 1.923008e+02, 0.000000e+00
104, 3, 4.046779e+02, 0.000000e+00, 9.138031e+01, 0.000000e+00, 1.923008e+02, 0.000000e+00
104, 4, 4.046779e+02, 0.000000e+00, 9.138031e+01, 0.000000e+00, 1.923008e+02, 0.000000e+00
104, 5, 4.046779e+02, 0.000000e+00, 9.138031e+01, 0.000000e+00, 1.923008e+02, 0.000000e+00
104, 6, 4.046779e+02, 0.000000e+00, 9.138031e+01, 0.000000e+00, 1.923008e+02, 0.000000e+00
104, 7, 4.046779e+02, 0.000000e+00, 9.138031e+01, 0.000000e+00, 1.923008e+02, 0.000000e+00
104, 8, 4.046779e+02, 0.000000e+00, 9.138031e+01, 0.000000e+00, 1.923008e+02, 0.000000e+00
105, 1, 4.045170e+02, 0.000000e+00, 9.174305e+01, 0.000000e+00, 1.926438e+02, 0.000000e+00
105, 2, 4.045170e+02, 0.000000e+00, 9.174305e+01, 0.000000e+00, 1.926438e+02, 0.000000e+00
105, 3, 4.045170e+02, 0.000000e+00, 9.174305e+01, 0.000000e+00, 1.926438e+02, 0.000000e+00
105, 4, 4.045170e+02, 0.000000e+00, 9.174305e+01, 0.000000e+00, 1.926438e+02, 0.000000e+00
105, 5, 4.045170e+02, 0.000000e+00, 9.174305e+01, 0.000000e+00, 1.926438e+02, 0.000000e+00
105, 6, 4.045170e+02, 0.000000e+00, 9.174305e+01, 0.000000e+00, 1.926438e+02, 0.000000e+00
105, 7, 4.045170e+02, 0.000000e+00, 9.174305e+01, 0.000000e+00, 1.926438e+02, 0.000000e+00
105, 8, 4.045170e+02, 0.000000e+00, 9.174305e+01, 0.000000e+00, 1.926438e+02, 0.000000e+00
106, 1, 4.043516e+02, 0.000000e+00, 9.211026e+01, 0.000000e+00, 1.929895e+02, 0.000000e+00
106, 2, 4.043516e+02, 0.000000e+00, 9.211026e+01, 0.000000e+00, 1.929895e+02, 0.000000e+00
106, 3, 4.043516e+02, 0.000000e+00, 9.211026e+01, 0.000000e+00, 1.929895e+02, 0.000000e+00
106, 4, 4.043516e+02, 0.000000e+00, 9.211026e+01, 0.000000e+00, 1.929895e+02, 0.000000e+00
106, 5, 4.043516e+02, 0.000000e+00, 9.211026e+01, 0.000000e+00, 1.929895e+02, 0.000000e+00
106, 6, 4.043516e+02, 0.000000e+00, 9.211026e+01, 0.000000e+00, 1.929895e+02, 0.000000e+00
106, 7, 4.043516e+02, 0.000000e+00, 9.211026e+01, 0.000000e+00, 1.929895e+02, 0.000000e+00
106, 8, 4.043516e+02, 0.000000e+00, 9.211026e+01, 0.000000e+00, 1.929895e+02, 0.000000e+00
107, 1, 4.041567e+02, 0.000000e+00, 9.254289e+01, 0.000000e+00, 1.933955e+02, 0.000000e+00
107, 2, 4.041567e+02, 0.000000e+00, 9.254289e+01, 0.000000e+00, 1.933955e+02, 0.000000e+00
107, 3, 4.041567e+02, 0.000000e+00, 9.254289e+01, 0.000000e+00, 1.933955e+02, 0.000000e+00
107, 4, 4.041567e+02, 0.000000e+00, 9.254289e+01, 0.000000e+00, 1.933955e+02, 0.000000e+00
107, 5, 4.041567e+02, 0.000000e+00, 9.254289e+01, 0.000000e+00, 1.933955e+02, 0.000000e+00
107, 6, 4.041567e+02, 0.000000e+00, 9.254289e+01, 0.000000e+00, 1.933955e+02, 0.000000e+00
107, 7, 4.041567e+02, 0.000000e+00, 9.254289e+01, 0.000000e+00, 1.933955e+02, 0.000000e+00
107, 8, 4.041567e+02, 0.000000e+00, 9.254289e+01, 0.000000e+00, 1.933955e+02, 0.000000e+00
108, 1, 4.039020e+02, 0.000000e+00, 9.311374e+01, 0.000000e+00, 1.939299e+02, 0.000000e+00
108, 2, 4.039020e+02, 0.000000e+00, 9.311374e+01, 0.000000e+00, 1.939299e+02, 0.000000e+00
108, 3, 4.039020e+02, 0.000000e+00, 9.311374e+01, 0.000000e+00, 1.939299e+02, 0.000000e+00
108, 4, 4.039020e+02, 0.000000e+00, 9.311374e+01, 0.000000e+00, 1.939299e+02, 0.000000e+00
108, 5, 4.039020e+02, 0.000000e+00, 9.311374e+01, 0.000000e+00, 1.939299e+02, 0.000000e+00
108, 6, 4.039020e+02, 0.000000e+00, 9.311374e+01, 0.000000e+00, 1.939299e+02, 0.000000e+00
108, 7, 4.039020e+02, 0.000000e+00, 9.311374e+01, 0.000000e+00, 1.939299e+02, 0.000000e+00
108, 8, 4.039020e+02, 0.000000e+00, 9.311374e+01, 0.000000e+00, 1.939299e+02, 0.000000e+00
109, 1, 4.036621e+02, 0.000000e+00, 9.364513e+01, 0.000000e+00, 1.944248e+02, 0.000000e+00
109, 2, 4.036621e+02, 0.000000e+00, 9.364513e+01, 0.000000e+00, 1.944248e+02, 0.000000e+00
109, 3, 4.036621e+02, 0.000000e+00, 9.364513e+01, 0.000000e+00, 1.944248e+02, 0.000000e+00
109, 4, 4.036621e+02, 0.000000e+00, 9.364513e+01, 0.000000e+00, 1.944248e+02, 0.000000e+00
109, 5, 4.036621e+02, 0.000000e+00, 9.364513e+01, 0.000000e+00, 1.944248e+02, 0.000000e+00
109, 6, 4.036621e+02, 0.000000e+00, 9.364513e+01, 0.000000e+00, 1.944248e+02, 0.000000e+00
109, 7, 4.036621e+02, 0.000000e+00, 9.364513e+01, 0.000000e+00, 1.944248e+02, 0.000000e+00
109, 8, 4.036621e+02, 0.000000e+00, 9.364513e+01, 0.000000e+00, 1.944248e+02, 0.000000e+00
110, 1, 4.034976e+02, 0.000000e+00, 9.401136e+01, 0.000000e+00, 1.947649e+02, 0.000000e+00
110, 2, 4.034976e+02, 0.000000e+00, 9.401136e+01, 0.000000e+00, 1.947649e+02, 0.000000e+00
110, 3, 4.034976e+02, 0.000000e+00, 9.401136e+01, 0.000000e+00, 1.947649e+02, 0.000000e+00
110, 4, 4.034976e+02, 0.000000e+00, 9.401136e+01, 0.000000e+00, 1.947649e+02, 0.000000e+00
110, 5, 4.034976e+02, 0.000000e+00, 9.401136e+01, 0.000000e+00, 1.947649e+02, 0.000000e+00
110, 6, 4.034976e+02, 0.000000e+00, 9.401136e+01, 0.000000e+00, 1.947649e+02, 0.000000e+00
110, 7, 4.034976e+02, 0.000000e+00, 9.401136e+01, 0.000000e+00, 1.947649e+02, 0.000000e+00
110, 8, 4.034976e+02, 0.000000e+00, 9.401136e+01, 0.000000e+00, 1.947649e+02, 0.000000e+00
111, 1, 4.032610e+02, 0.000000e+00, 9.454402e+01, 0.000000e+00, 1.952586e+02, 0.000000e+00
111, 2, 4.032610e+02, 0.000000e+00, 9.454402e+01, 0.000000e+00, 1.952586e+02, 0.000000e+00
111, 3, 4.032610e+02, 0.000000e+00, 9.454402e+01, 0.000000e+00, 1.952586e+02, 0.000000e+00
111, 4, 4.032610e+02, 0.000000e+00, 9.454402e+01, 0.000000e+00, 1.952586e+02, 0.000000e+00
111, 5, 4.032610e+02, 0.000000e+00, 9.454402e+01, 0.000000e+00, 1.952586e+02, 0.000000e+00
111, 6, 4.032610e+02, 0.000000e+00, 9.454402e+01, 0.000000e+00, 1.952586e+02, 0.000000e+00
111, 7, 4.032610e+02, 0.000000e+00, 9.454402e+01, 0.000000e+00, 1.952586e+02, 0.000000e+00
111, 8, 4.032610e+02, 0.000000e+00, 9.454402e+01, 0.000000e+00, 1.952586e+02, 0.000000e+00
112, 1, 4.029290e+02, 0.000000e+00, 9.528413e+01, 0.000000e+00, 1.959406e+02, 0.000000e+00
112, 2, 4.029290e+02, 0.000000e+00, 9.528413e+01, 0.000000e+00, 1.959406e+02, 0.000000e+00
112, 3, 4.029290e+02, 0.000000e+00, 9.528413e+01, 0.000000e+00, 1.959406e+02, 0.000000e+00
112, 4, 4.029290e+02, 0.000000e+00, 9.528413e+01, 0.000000e+00, 1.959406e+02, 0.000000e+00
112, 5, 4.029290e+02, 0.000000e+00, 9.528413e+01, 0.000000e+00, 1.959406e+02, 0.000000e+00
112, 6, 4.029290e+02, 0.000000e+00, 9.528413e+01, 0.000000e+00, 1.959406e+02, 0.000000e+00
112, 7, 4.029290e+02, 0.000000e+00, 9.528413e+01, 0.000000e+00, 1.959406e+02, 0.000000e+00
112, 8, 4.029290e+02, 0.000000e+00, 9.528413e+01, 0.000000e+00, 1.959406e+02, 0.000000e+00
113, 1, 4.026879e+02, 0.000000e+00, 9.582114e+01, 0.000000e+00, 1.964332e+02, 0.000000e+00
113, 2, 4.026879e+02, 0.000000e+00, 9.582114e+01, 0.000000e+00, 1.964332e+02, 0.000000e+00
113, 3, 4.026879e+02, 0.000000e+00, 9.582114e+01, 0.000000e+00, 1.964332e+02, 0.000000e+00
113, 4, 4.026879e+02, 0.000000e+00, 9.582114e+01, 0.000000e+00, 1.964332e+02, 0.000000e+00
113, 5, 4.026879e+02, 0.000000e+00, 9.582114e+01, 0.000000e+00, 1.964332e+02, 0.000000e+00
113, 6, 4.026879e+02, 0.000000e+00, 9.582114e+01, 0.000000e+00, 1.964332e+02, 0.000000e+00
113, 7, 4.026879e+02, 0.000000e+00, 9.582114e+01, 0.000000e+00, 1.964332e+02, 0.000000e+00
113, 8, 4.026879e+02, 0.000000e+00, 9.582114e+01, 0.000000e+00, 1.964332e+02, 0.000000e+00
114, 1, 4.025238e+02, 0.000000e+00, 9.619151e+01, 0.000000e+00, 1.967724e+02, 0.000000e+00
114, 2, 4.025238e+02, 0.000000e+00, 9.619151e+01, 0.000000e+00, 1.967724e+02, 0.000000e+00
114, 3, 4.025238e+02, 0.000000e+00, 9.619151e+01, 0.000000e+00, 1.967724e+02, 0.000000e+00
114, 4, 4.025238e+02, 0.000000e+00, 9.619151e+01, 0.000000e+00, 1.967724e+02, 0.000000e+00
114, 5, 4.025238e+02, 0.000000e+00, 9.619151e+01, 0.000000e+00, 1.967724e+02, 0.000000e+00
114, 6, 4.025238e+02, 0.000000e+00, 9.619151e+01, 0.000000e+00, 1.967724e+02, 0.000000e+00
114, 7, 4.025238e+02, 0.000000e+00, 9.619151e+01, 0.000000e+00, 1.967724e+02, 0.000000e+00
114, 8, 4.025238e+02, 0.000000e+00, 9.619151e+01, 0.000000e+00, 1.967724e+02, 0.000000e+00
115, 1, 4.022841e+02, 0.000000e+00, 9.672945e+01, 0.000000e+00, 1.972631e+02, 0.000000e+00
115, 2, 4.022841e+02, 0.000000e+00, 9.672945e+01, 0.000000e+00, 1.972631e+02, 0.000000e+00
115, 3, 4.022841e+02, 0.000000e+00, 9.672945e+01, 0.000000e+00, 1.972631e+02, 0.000000e+00
115, 4, 4.022841e+02, 0.000000e+00, 9.672945e+01, 0.000000e+00, 1.972631e+02, 0.000000e+00
115, 5, 4.022841e+02, 0.000000e+00, 9.672945e+01, 0.000000e+00, 1.972631e+02, 0.000000e+00
115, 6, 4.022841e+02, 0.000000e+00, 9.672945e+01, 0.000000e+00, 1.972631e+02, 0.000000e+00
115, 7, 4.022841e+02, 0.000000e+00, 9.672945e+01, 0.000000e+00, 1.972631e+02, 0.000000e+00
115, 8, 4.022841e+02, 0.000000e+00, 9.672945e+01, 0.000000e+00, 1.972631e+02, 0.000000e+00
116, 1, 4.019510e+02, 0.000000e+00, 9.747742e+01, 0.000000e+00, 1.979423e+02, 0.000000e+00
116, 2, 4.019510e+02, 0.000000e+00, 9.747742e+01, 0.000000e+00, 1.979423e+02, 0.000000e+00
116, 3, 4.019510e+02, 0.000000e+00, 9.747742e+01, 0.000000e+00, 1.979423e+02, 0.000000e+00
116, 4, 4.019510e+02, 0.000000e+00, 9.747742e+01, 0.000000e+00, 1.979423e+02, 0.000000e+00
116, 5, 4.019510e+02, 0.000000e+00, 9.747742e+01, 0.000000e+00, 1.979423e+02, 0.000000e+00
116, 6, 4.019510e+02, 0.000000e+00, 9.747742e+01, 0.000000e+00, 1.979423e+02, 0.000000e+00
116, 7, 4.019510e+02, 0.000000e+00, 9.747742e+01, 0.000000e+00, 1.979423e+02, 0.000000e+00
116, 8, 4.019510e+02, 0.000000e+00, 9.747742e+01, 0.000000e+00, 1.979423e+02, 0.000000e+00
117, 1, 4.017070e+02, 0.000000e+00, 9.801959e+01, 0.000000e+00, 1.984318e+02, 0.000000e+00
117, 2, 4.017070e+02, 0.000000e+00, 9.801959e+01, 0.000000e+00, 1.984318e+02, 0.000000e+00
117, 3, 4.017070e+02, 0.000000e+00, 9.801959e+01, 0.000000e+00, 1.984318e+02, 0.000000e+00
117, 4, 4.017070e+02, 0.000000e+00, 9.801959e+01, 0.000000e+00, 1.984318e+02, 0.000000e+00
117, 5, 4.017070e+02, 0.000000e+00, 9.801959e+01, 0.000000e+00, 1.984318e+02, 0.000000e+00
117, 6, 4.017070e+02, 0.000000e+00, 9.801959e+01, 0.000000e+00, 1.984318e+02, 0.000000e+00
117, 7, 4.017070e+02, 0.000000e+00, 9.801959e+01, 0.000000e+00, 1.984318e+02, 0.000000e+00
117, 8, 4.017070e+02, 0.000000e+00, 9.801959e+01, 0.000000e+00, 1.984318e+02, 0.000000e+00
118, 1, 4.015415e+02, 0.000000e+00, 9.839367e+01, 0.000000e+00, 1.987691e+02, 0.000000e+00
118, 2, 4.015415e+02, 0.000000e+00, 9.839367e+01, 0.000000e+00, 1.987691e+02, 0.000000e+00
118, 3, 4.015415e+02, 0.000000e+00, 9.839367e+01, 0.000000e+00, 1.987691e+02, 0.000000e+00
118, 4, 4.015415e+02, 0.000000e+00, 9.839367e+01, 0.000000e+00, 1.987691e+02, 0.000000e+00
118, 5, 4.015415e+02, 0.000000e+00, 9.839367e+01, 0.000000e+00, 1.987691e+02, 0.000000e+00
118, 6, 4.015415e+02, 0.000000e+00, 9.839367e+01, 0.000000e+00, 1.987691e+02, 0.000000e+00
118, 7, 4.015415e+02, 0.000000e+00, 9.839367e+01, 0.000000e+00, 1.987691e+02, 0.000000e+00
118, 8, 4.015415e+02, 0.000000e+00, 9.839367e+01, 0.000000e+00, 1.987691e+02, 0.000000e+00
119, 1, 4.012988e+02, 0.000000e+00, 9.893684e+01, 0.000000e+00, 1.992567e+02, 0.000000e+00
119, 2, 4.012988e+02, 0.000000e+00, 9.893684e+01, 0.000000e+00, 1.992567e+02, 0.000000e+00
119, 3, 4.012988e+02, 0.000000e+00, 9.893684e+01, 0.000000e+00, 1.992567e+02, 0.000000e+00
119, 4, 4.012988e+02, 0.000000e+00, 9.893684e+01, 0.000000e+00, 1.992567e+02, 0.000000e+00
119, 5, 4.012988e+02, 0.000000e+00, 9.893684e+01, 0.000000e+00, 1.992567e+02, 0.000000e+00
119, 6, 4.012988e+02, 0.000000e+00, 9.893684e+01, 0.000000e+00, 1.992567e+02, 0.000000e+00
119, 7, 4.012988e+02, 0.000000e+00, 9.893684e+01, 0.000000e+00, 1.992567e+02, 0.000000e+00
119, 8, 4.012988e+02, 0.000000e+00, 9.893684e+01, 0.000000e+00, 1.992567e+02, 0.000000e+00
120, 1, 3.998767e+02, 0.000000e+00, 1.021393e+02, 0.000000e+00, 2.020968e+02, 0.000000e+00
120, 2, 3.998767e+02, 0.000000e+00, 1.021393e+02, 0.000000e+00, 2.020968e+02, 0.000000e+00
120, 3, 3.998767e+02, 0.000000e+00, 1.021393e+02, 0.000000e+00, 2.020968e+02, 0.000000e+00
120, 4, 3.998767e+02, 0.000000e+00, 1.021393e+02, 0.000000e+00, 2.020968e+02, 0.000000e+00
120, 5, 3.998767e+02, 0.000000e+00, 1.021393e+02, 0.000000e+00, 2.020968e+02, 0.000000e+00
120, 6, 3.998767e+02, 0.000000e+00, 1.021393e+02, 0.000000e+00, 2.020968e+02, 0.000000e+00
120, 7, 3.998767e+02, 0.000000e+00, 1.021393e+02, 0.000000e+00, 2.020968e+02, 0.000000e+00
120, 8, 3.998767e+02, 0.000000e+00, 1.021393e+02, 0.000000e+00, 2.020968e+02, 0.000000e+00
121, 1, 3.996320e+02, 0.000000e+00, 1.026935e+02, 0.000000e+00, 2.025823e+02, 0.000000e+00
121, 2, 3.996320e+02, 0.000000e+00, 1.026935e+02, 0.000000e+00, 2.025823e+02, 0.000000e+00
121, 3, 3.996320e+02, 0.000000e+00, 1.026935e+02, 0.000000e+00, 2.025823e+02, 0.000000e+00
121, 4, 3.996320e+02, 0.000000e+00, 1.026935e+02, 0.000000e+00, 2.025823e+02, 0.000000e+00
121, 5, 3.996320e+02, 0.000000e+00, 1.026935e+02, 0.000000e+00, 2.025823e+02, 0.000000e+00
121, 6, 3.996320e+02, 0.000000e+00, 1.026935e+02, 0.000000e+00, 2.025823e+02, 0.000000e+00
121, 7, 3.996320e+02, 0.000000e+00, 1.026935e+02, 0.000000e+00, 2.025823e+02, 0.000000e+00
121, 8, 3.996320e+02, 0.000000e+00, 1.026935e+02, 0.000000e+00, 2.025823e+02, 0.000000e+00
122, 1, 3.994615e+02, 0.000000e+00, 1.030747e+02, 0.000000e+00, 2.029147e+02, 0.000000e+00
122, 2, 3.994615e+02, 0.000000e+00, 1.030747e+02, 0.000000e+00, 2.029147e+02, 0.000000e+00
122, 3, 3.994615e+02, 0.000000e+00, 1.030747e+02, 0.000000e+00, 2.029147e+02, 0.000000e+00
122, 4, 3.994615e+02, 0.000000e+00, 1.030747e+02, 0.000000e+00, 2.029147e+02, 0.000000e+00
122, 5, 3.994615e+02, 0.000000e+00, 1.030747e+02, 0.000000e+00, 2.029147e+02, 0.000000e+00
122, 6, 3.994615e+02, 0.000000e+00, 1.030747e+02, 0.000000e+00, 2.029147e+02, 0.000000e+00
122, 7, 3.994615e+02, 0.000000e+00, 1.030747e+02, 0.000000e+00, 2.029147e+02, 0.000000e+00
122, 8, 3.994615e+02, 0.000000e+00, 1.030747e+02, 0.000000e+00, 2.029147e+02, 0.000000e+00
123, 1, 3.992160e+02, 0.000000e+00, 1.036296e+02, 0.000000e+00, 2.033976e+02, 0.000000e+00
123, 2, 3.992160e+02, 0.000000e+00, 1.036296e+02, 0.000000e+00, 2.033976e+02, 0.000000e+00
123, 3, 3.992160e+02, 0.000000e+00, 1.036296e+02, 0.000000e+00, 2.033976e+02, 0.000000e+00
123, 4, 3.992160e+02, 0.000000e+00, 1.036296e+02, 0.000000e+00, 2.033976e+02, 0.000000e+00
123, 5, 3.992160e+02, 0.000000e+00, 1.036296e+02, 0.000000e+00, 2.033976e+02, 0.000000e+00
123, 6, 3.992160e+02, 0.000000e+00, 1.036296e+02, 0.000000e+00, 2.033976e+02, 0.000000e+00
123, 7, 3.992160e+02, 0.000000e+00, 1.036296e+02, 0.000000e+00, 2.033976e+02, 0.000000e+00
123, 8, 3.992160e+02, 0.000000e+00, 1.036296e+02, 0.000000e+00, 2.033976e+02, 0.000000e+00
124, 1, 3.988755e+02, 0.000000e+00, 1.044007e+02, 0.000000e+00, 2.040659e+02, 0.000000e+00
124, 2, 3.988755e+02, 0.000000e+00, 1.044007e+02, 0.000000e+00, 2.040659e+02, 0.000000e+00
124, 3, 3.988755e+02, 0.000000e+00, 1.044007e+02, 0.000000e+00, 2.040659e+02, 0.000000e+00
124, 4, 3.988755e+02, 0.000000e+00, 1.044007e+02, 0.000000e+00, 2.040659e+02, 0.000000e+00
124, 5, 3.988755e+02, 0.000000e+00, 1.044007e+02, 0.000000e+00, 2.040659e+02, 0.000000e+00
124, 6, 3.988755e+02, 0.000000e+00, 1.044007e+02, 0.000000e+00, 2.040659e+02, 0.000000e+00
124, 7, 3.988755e+02, 0.000000e+00, 1.044007e+02, 0.000000e+00, 2.040659e+02, 0.000000e+00
124, 8, 3.988755e+02, 0.000000e+00, 1.044007e+02, 0.000000e+00, 2.040659e+02, 0.000000e+00
125, 1, 3.986279e+02, 0.000000e+00, 1.049600e+02, 0.000000e+00, 2.045482e+02, 0.000000e+00
125, 2, 3.986279e+02, 0.000000e+00, 1.049600e+02, 0.000000e+00, 2.045482e+02, 0.000000e+00
125, 3, 3.986279e+02, 0.000000e+00, 1.049600e+02, 0.000000e+00, 2.045482e+02, 0.000000e+00
125, 4, 3.986279e+02, 0.000000e+00, 1.049600e+02, 0.000000e+00, 2.045482e+02, 0.000000e+00
125, 5, 3.986279e+02, 0.000000e+00, 1.049600e+02, 0.000000e+00, 2.045482e+02, 0.000000e+00
125, 6, 3.986279e+02, 0.000000e+00, 1.049600e+02, 0.000000e+00, 2.045482e+02, 0.000000e+00
125, 7, 3.986279e+02, 0.000000e+00, 1.049600e+02, 0.000000e+00, 2.045482e+02, 0.000000e+00
125, 8, 3.986279e+02, 0.000000e+00, 1.049600e+02, 0.000000e+00, 2.045482e+02, 0.000000e+00
126, 1, 3.984578e+02, 0.000000e+00, 1.053453e+02, 0.000000e+00, 2.048796e+02, 0.000000e+00
126, 2, 3.984578e+02, 0.000000e+00, 1.053453e+02, 0.000000e+00, 2.048796e+02, 0.000000e+00
126, 3, 3.984578e+02, 0.000000e+00, 1.053453e+02, 0.000000e+00, 2.048796e+02, 0.000000e+00
126, 4, 3.984578e+02, 0.000000e+00, 1.053453e+02, 0.000000e+00, 2.048796e+02, 0.000000e+00
126, 5, 3.984578e+02, 0.000000e+00, 1.053453e+02, 0.000000e+00, 2.048796e+02, 0.000000e+00
126, 6, 3.984578e+02, 0.000000e+00, 1.053453e+02, 0.000000e+00, 2.048796e+02, 0.000000e+00
126, 7, 3.984578e+02, 0.000000e+00, 1.053453e+02, 0.000000e+00, 2.048796e+02, 0.000000e+00
126, 8, 3.984578e+02, 0.000000e+00, 1.053453e+02, 0.000000e+00, 2.048796e+02, 0.000000e+00
127, 1, 3.982112e+02, 0.000000e+00, 1.059058e+02, 0.000000e+00, 2.053604e+02, 0.000000e+00
127, 2, 3.982112e+02, 0.000000e+00, 1.059058e+02, 0.000000e+00, 2.053604e+02, 0.000000e+00
127, 3, 3.982112e+02, 0.000000e+00, 1.059058e+02, 0.000000e+00, 2.053604e+02, 0.000000e+00
127, 4, 3.982112e+02, 0.000000e+00, 1.059058e+02, 0.000000e+00, 2.053604e+02, 0.000000e+00
127, 5, 3.982112e+02, 0.000000e+00, 1.059058e+02, 0.000000e+00, 2.053604e+02, 0.000000e+00
127, 6, 3.982112e+02, 0.000000e+00, 1.059058e+02, 0.000000e+00, 2.053604e+02, 0.000000e+00
127, 7, 3.982112e+02, 0.000000e+00, 1.059058e+02, 0.000000e+00, 2.053604e+02, 0.000000e+00
127, 8, 3.982112e+02, 0.000000e+00, 1.059058e+02, 0.000000e+00, 2.053604e+02, 0.000000e+00
128, 1, 3.978678e+02, 0.000000e+00, 1.066842e+02, 0.000000e+00, 2.060248e+02, 0.000000e+00
128, 2, 3.978678e+02, 0.000000e+00, 1.066842e+02, 0.000000e+00, 2.060248e+02, 0.000000e+00
128, 3, 3.978678e+02, 0.000000e+00, 1.066842e+02, 0.000000e+00, 2.060248e+02, 0.000000e+00
128, 4, 3.978678e+02, 0.000000e+00, 1.066842e+02, 0.000000e+00, 2.060248e+02, 0.000000e+00
128, 5, 3.978678e+02, 0.000000e+00, 1.066842e+02, 0.000000e+00, 2.060248e+02, 0.000000e+00
128, 6, 3.978678e+02, 0.000000e+00, 1.066842e+02, 0.000000e+00, 2.060248e+02, 0.000000e+00
128, 7, 3.978678e+02, 0.000000e+00, 1.066842e+02, 0.000000e+00, 2.060248e+02, 0.000000e+00
128, 8, 3.978678e+02, 0.000000e+00, 1.066842e+02, 0.000000e+00, 2.060248e+02, 0.000000e+00
129, 1, 3.976174e+02, 0.000000e+00, 1.072485e+02, 0.000000e+00, 2.065039e+02, 0.000000e+00
129, 2, 3.976174e+02, 0.000000e+00, 1.072485e+02, 0.000000e+00, 2.065039e+02, 0.000000e+00
129, 3, 3.976174e+02, 0.000000e+00, 1.072485e+02, 0.000000e+00, 2.065039e+02, 0.000000e+00
129, 4, 3.976174e+02, 0.000000e+00, 1.072485e+02, 0.000000e+00, 2.065039e+02, 0.000000e+00
129, 5, 3.976174e+02, 0.000000e+00, 1.072485e+02, 0.000000e+00, 2.065039e+02, 0.000000e+00
129, 6, 3.976174e+02, 0.000000e+00, 1.072485e+02, 0.000000e+00, 2.065039e+02, 0.000000e+00
129, 7, 3.976174e+02, 0.000000e+00, 1.072485e+02, 0.000000e+00, 2.065039e+02, 0.000000e+00
129, 8, 3.976174e+02, 0.000000e+00, 1.072485e+02, 0.000000e+00, 2.065039e+02, 0.000000e+00
130, 1, 3.974477e+02, 0.000000e+00, 1.076379e+02, 0.000000e+00, 2.068344e+02, 0.000000e+00
130, 2, 3.974477e+02, 0.000000e+00, 1.076379e+02, 0.000000e+00, 2.068344e+02, 0.000000e+00
130, 3, 3.974477e+02, 0.000000e+00, 1.076379e+02, 0.000000e+00, 2.068344e+02, 0.000000e+00
130, 4, 3.974477e+02, 0.000000e+00, 1.076379e+02, 0.000000e+00, 2.068344e+02, 0.000000e+00
130, 5, 3.974477e+02, 0.000000e+00, 1.076379e+02, 0.000000e+00, 2.068344e+02, 0.000000e+00
130, 6, 3.974477e+02, 0.000000e+00, 1.076379e+02, 0.000000e+00, 2.068344e+02, 0.000000e+00
130, 7, 3.974477e+02, 0.000000e+00, 1.076379e+02, 0.000000e+00, 2.068344e+02, 0.000000e+00
130, 8, 3.974477e+02, 0.000000e+00, 1.076379e+02, 0.000000e+00, 2.068344e+02, 0.000000e+00
131, 1, 3.971983e+02, 0.000000e+00, 1.082036e+02, 0.000000e+00, 2.073120e+02, 0.000000e+00
131, 2, 3.971983e+02, 0.000000e+00, 1.082036e+02, 0.000000e+00, 2.073120e+02, 0.000000e+00
131, 3, 3.971983e+02, 0.000000e+00, 1.082036e+02, 0.000000e+00, 2.073120e+02, 0.000000e+00
131, 4, 3.971983e+02, 0.000000e+00, 1.082036e+02, 0.000000e+00, 2.073120e+02, 0.000000e+00
131, 5, 3.971983e+02, 0.000000e+00, 1.082036e+02, 0.000000e+00, 2.073120e+02, 0.000000e+00
131, 6, 3.971983e+02, 0.000000e+00, 1.082036e+02, 0.000000e+00, 2.073120e+02, 0.000000e+00
131, 7, 3.971983e+02, 0.000000e+00, 1.082036e+02, 0.000000e+00, 2.073120e+02, 0.000000e+00
131, 8, 3.971983e+02, 0.000000e+00, 1.082036e+02, 0.000000e+00, 2.073120e+02, 0.000000e+00
132, 1, 3.969278e+02, 0.000000e+00, 1.088171e+02, 0.000000e+00, 2.078281e+02, 0.000000e+00
132, 2, 3.969278e+02, 0.000000e+00, 1.088171e+02, 0.000000e+00, 2.078281e+02, 0.000000e+00
132, 3, 3.969278e+02, 0.000000e+00, 1.088171e+02, 0.000000e+00, 2.078281e+02, 0.000000e+00
132, 4, 3.969278e+02, 0.000000e+00, 1.088171e+02, 0.000000e+00, 2.078281e+02, 0.000000e+00
132, 5, 3.969278e+02, 0.000000e+00, 1.088171e+02, 0.000000e+00, 2.078281e+02, 0.000000e+00
132, 6, 3.969278e+02, 0.000000e+00, 1.088171e+02, 0.000000e+00, 2.078281e+02, 0.000000e+00
132, 7, 3.969278e+02, 0.000000e+00, 1.088171e+02, 0.000000e+00, 2.078281e+02, 0.000000e+00
132, 8, 3.969278e+02, 0.000000e+00, 1.088171e+02, 0.000000e+00, 2.078281e+02, 0.000000e+00
133, 1, 3.967232e+02, 0.000000e+00, 1.092818e+02, 0.000000e+00, 2.082177e+02, 0.000000e+00
133, 2, 3.967232e+02, 0.000000e+00, 1.092818e+02, 0.000000e+00, 2.082177e+02, 0.000000e+00
133, 3, 3.967232e+02, 0.000000e+00, 1.092818e+02, 0.000000e+00, 2.082177e+02, 0.000000e+00
133, 4, 3.967232e+02, 0.000000e+00, 1.092818e+02, 0.000000e+00, 2.082177e+02, 0.000000e+00
133, 5, 3.967232e+02, 0.000000e+00, 1.092818e+02, 0.000000e+00, 2.082177e+02, 0.000000e+00
133, 6, 3.967232e+02, 0.000000e+00, 1.092818e+02, 0.000000e+00, 2.082177e+02, 0.000000e+00
133, 7, 3.967232e+02, 0.000000e+00, 1.092818e+02, 0.000000e+00, 2.082177e+02, 0.000000e+00
133, 8, 3.967232e+02, 0.000000e+00, 1.092818e+02, 0.000000e+00, 2.082177e+02, 0.000000e+00
134, 1, 3.965512e+02, 0.000000e+00, 1.096781e+02, 0.000000e+00, 2.085497e+02, 0.000000e+00
134, 2, 3.965512e+02, 0.000000e+00, 1.096781e+02, 0.000000e+00, 2.085497e+02, 0.000000e+00
134, 3, 3.965512e+02, 0.000000e+00, 1.096781e+02, 0.000000e+00, 2.085497e+02, 0.000000e+00
134, 4, 3.965512e+02, 0.000000e+00, 1.096781e+02, 0.000000e+00, 2.085497e+02, 0.000000e+00
134, 5, 3.965512e+02, 0.000000e+00, 1.096781e+02, 0.000000e+00, 2.085497e+02, 0.000000e+00
134, 6, 3.965512e+02, 0.000000e+00, 1.096781e+02, 0.000000e+00, 2.085497e+02, 0.000000e+00
134, 7, 3.965512e+02, 0.000000e+00, 1.096781e+02, 0.000000e+00, 2.085497e+02, 0.000000e+00
134, 8, 3.965512e+02, 0.000000e+00, 1.096781e+02, 0.000000e+00, 2.085497e+02, 0.000000e+00
135, 1, 3.963782e+02, 0.000000e+00, 1.100708e+02, 0.000000e+00, 2.088771e+02, 0.000000e+00
135, 2, 3.963782e+02, 0.000000e+00, 1.100708e+02, 0.000000e+00, 2.088771e+02, 0.000000e+00
135, 3, 3.963782e+02, 0.000000e+00, 1.100708e+02, 0.000000e+00, 2.088771e+02, 0.000000e+00
135, 4, 3.963782e+02, 0.000000e+00, 1.100708e+02, 0.000000e+00, 2.088771e+02, 0.000000e+00
135, 5, 3.963782e+02, 0.000000e+00, 1.100708e+02, 0.000000e+00, 2.088771e+02, 0.000000e+00
135, 6, 3.963782e+02, 0.000000e+00, 1.100708e+02, 0.000000e+00, 2.088771e+02, 0.000000e+00
135, 7, 3.963782e+02, 0.000000e+00, 1.100708e+02, 0.000000e+00, 2.088771e+02, 0.000000e+00
135, 8, 3.963782e+02, 0.000000e+00, 1.100708e+02, 0.000000e+00, 2.088771e+02, 0.000000e+00
136, 1, 3.961275e+02, 0.000000e+00, 1.106422e+02, 0.000000e+00, 2.093523e+02, 0.000000e+00
136, 2, 3.961275e+02, 0.000000e+00, 1.106422e+02, 0.000000e+00, 2.093523e+02, 0.000000e+00
136, 3, 3.961275e+02, 0.000000e+00, 1.106422e+02, 0.000000e+00, 2.093523e+02, 0.000000e+00
136, 4, 3.961275e+02, 0.000000e+00, 1.106422e+02, 0.000000e+00, 2.093523e+02, 0.000000e+00
136, 5, 3.961275e+02, 0.000000e+00, 1.106422e+02, 0.000000e+00, 2.093523e+02, 0.000000e+00
136, 6, 3.961275e+02, 0.000000e+00, 1.106422e+02, 0.000000e+00, 2.093523e+02, 0.000000e+00
136, 7, 3.961275e+02, 0.000000e+00, 1.106422e+02, 0.000000e+00, 2.093523e+02, 0.000000e+00
136, 8, 3.961275e+02, 0.000000e+00, 1.106422e+02, 0.000000e+00, 2.093523e+02, 0.000000e+00
137, 1, 3.957783e+02, 0.000000e+00, 1.114353e+02, 0.000000e+00, 2.100088e+02, 0.000000e+00
137, 2, 3.957783e+02, 0.000000e+00, 1.114353e+02, 0.000000e+00, 2.100088e+02, 0.000000e+00
137, 3, 3.957783e+02, 0.000000e+00, 1.114353e+02, 0.000000e+00, 2.100088e+02, 0.000000e+00
137, 4, 3.957783e+02, 0.000000e+00, 1.114353e+02, 0.000000e+00, 2.100088e+02, 0.000000e+00
137, 5, 3.957783e+02, 0.000000e+00, 1.114353e+02, 0.000000e+00, 2.100088e+02, 0.000000e+00
137, 6, 3.957783e+02, 0.000000e+00, 1.114353e+02, 0.000000e+00, 2.100088e+02, 0.000000e+00
137, 7, 3.957783e+02, 0.000000e+00, 1.114353e+02, 0.000000e+00, 2.100088e+02, 0.000000e+00
137, 8, 3.957783e+02, 0.000000e+00, 1.114353e+02, 0.000000e+00, 2.100088e+02, 0.000000e+00
138, 1, 3.955257e+02, 0.000000e+00, 1.120108e+02, 0.000000e+00, 2.104831e+02, 0.000000e+00
138, 2, 3.955257e+02, 0.000000e+00, 1.120108e+02, 0.000000e+00, 2.104831e+02, 0.000000e+00
138, 3, 3.955257e+02, 0.000000e+00, 1.120108e+02, 0.000000e+00, 2.104831e+02, 0.000000e+00
138, 4, 3.955257e+02, 0.000000e+00, 1.120108e+02, 0.000000e+00, 2.104831e+02, 0.000000e+00
138, 5, 3.955257e+02, 0.000000e+00, 1.120108e+02, 0.000000e+00, 2.104831e+02, 0.000000e+00
138, 6, 3.955257e+02, 0.000000e+00, 1.120108e+02, 0.000000e+00, 2.104831e+02, 0.000000e+00
138, 7, 3.955257e+02, 0.000000e+00, 1.120108e+02, 0.000000e+00, 2.104831e+02, 0.000000e+00
138, 8, 3.955257e+02, 0.000000e+00, 1.120108e+02, 0.000000e+00, 2.104831e+02, 0.000000e+00
139, 1, 3.953531e+02, 0.000000e+00, 1.124076e+02, 0.000000e+00, 2.108096e+02, 0.000000e+00
139, 2, 3.953531e+02, 0.000000e+00, 1.124076e+02, 0.000000e+00, 2.108096e+02, 0.000000e+00
139, 3, 3.953531e+02, 0.000000e+00, 1.124076e+02, 0.000000e+00, 2.108096e+02, 0.000000e+00
139, 4, 3.953531e+02, 0.000000e+00, 1.124076e+02, 0.000000e+00, 2.108096e+02, 0.000000e+00
139, 5, 3.953531e+02, 0.000000e+00, 1.124076e+02, 0.000000e+00, 2.108096e+02, 0.000000e+00
139, 6, 3.953531e+02, 0.000000e+00, 1.124076e+02, 0.000000e+00, 2.108096e+02, 0.000000e+00
139, 7, 3.953531e+02, 0.000000e+00, 1.124076e+02, 0.000000e+00, 2.108096e+02, 0.000000e+00
139, 8, 3.953531e+02, 0.000000e+00, 1.124076e+02, 0.000000e+00, 2.108096e+02, 0.000000e+00
140, 1, 3.951013e+02, 0.000000e+00, 1.129845e+02, 0.000000e+00, 2.112826e+02, 0.000000e+00
140, 2, 3.951013e+02, 0.000000e+00, 1.129845e+02, 0.000000e+00, 2.112826e+02, 0.000000e+00
140, 3, 3.951013e+02, 0.000000e+00, 1.129845e+02, 0.000000e+00, 2.112826e+02, 0.000000e+00
140, 4, 3.951013e+02, 0.000000e+00, 1.129845e+02, 0.000000e+00, 2.112826e+02, 0.000000e+00
140, 5, 3.951013e+02, 0.000000e+00, 1.129845e+02, 0.000000e+00, 2.112826e+02, 0.000000e+00
140, 6, 3.951013e+02, 0.000000e+00, 1.129845e+02, 0.000000e+00, 2.112826e+02, 0.000000e+00
140, 7, 3.951013e+02, 0.000000e+00, 1.129845e+02, 0.000000e+00, 2.112826e+02, 0.000000e+00
140, 8, 3.951013e+02, 0.000000e+00, 1.129845e+02, 0.000000e+00, 2.112826e+02, 0.000000e+00
141, 1, 3.947513e+02, 0.000000e+00, 1.137853e+02, 0.000000e+00, 2.119361e+02, 0.000000e+00
141, 2, 3.947513e+02, 0.000000e+00, 1.137853e+02, 0.000000e+00, 2.119361e+02, 0.000000e+00
141, 3, 3.947513e+02, 0.000000e+00, 1.137853e+02, 0.000000e+00, 2.119361e+02, 0.000000e+00
141, 4, 3.947513e+02, 0.000000e+00, 1.137853e+02, 0.000000e+00, 2.119361e+02, 0.000000e+00
141, 5, 3.947513e+02, 0.000000e+00, 1.137853e+02, 0.000000e+00, 2.119361e+02, 0.000000e+00
141, 6, 3.947513e+02, 0.000000e+00, 1.137853e+02, 0.000000e+00, 2.119361e+02, 0.000000e+00
141, 7, 3.947513e+02, 0.000000e+00, 1.137853e+02, 0.000000e+00, 2.119361e+02, 0.000000e+00
141, 8, 3.947513e+02, 0.000000e+00, 1.137853e+02, 0.000000e+00, 2.119361e+02, 0.000000e+00
142, 1, 3.944977e+02, 0.000000e+00, 1.143663e+02, 0.000000e+00, 2.124082e+02, 0.000000e+00
142, 2, 3.944977e+02, 0.000000e+00, 1.143663e+02, 0.000000e+00, 2.124082e+02, 0.000000e+00
142, 3, 3.944977e+02, 0.000000e+00, 1.143663e+02, 0.000000e+00, 2.124082e+02, 0.000000e+00
142, 4, 3.944977e+02, 0.000000e+00, 1.143663e+02, 0.000000e+00, 2.124082e+02, 0.000000e+00
142, 5, 3.944977e+02, 0.000000e+00, 1.143663e+02, 0.000000e+00, 2.124082e+02, 0.000000e+00
142, 6, 3.944977e+02, 0.000000e+00, 1.143663e+02, 0.000000e+00, 2.124082e+02, 0.000000e+00
142, 7, 3.944977e+02, 0.000000e+00, 1.143663e+02, 0.000000e+00, 2.124082e+02, 0.000000e+00
142, 8, 3.944977e+02, 0.000000e+00, 1.143663e+02, 0.000000e+00, 2.124082e+02, 0.000000e+00
143, 1, 3.943220e+02, 0.000000e+00, 1.147661e+02, 0.000000e+00, 2.127318e+02, 0.000000e+00
143, 2, 3.943220e+02, 0.000000e+00, 1.147661e+02, 0.000000e+00, 2.127318e+02, 0.000000e+00
143, 3, 3.943220e+02, 0.000000e+00, 1.147661e+02, 0.000000e+00, 2.127318e+02, 0.000000e+00
143, 4, 3.943220e+02, 0.000000e+00, 1.147661e+02, 0.000000e+00, 2.127318e+02, 0.000000e+00
143, 5, 3.943220e+02, 0.000000e+00, 1.147661e+02, 0.000000e+00, 2.127318e+02, 0.000000e+00
143, 6, 3.943220e+02, 0.000000e+00, 1.147661e+02, 0.000000e+00, 2.127318e+02, 0.000000e+00
143, 7, 3.943220e+02, 0.000000e+00, 1.147661e+02, 0.000000e+00, 2.127318e+02, 0.000000e+00
143, 8, 3.943220e+02, 0.000000e+00, 1.147661e+02, 0.000000e+00, 2.127318e+02, 0.000000e+00
144, 1, 3.940692e+02, 0.000000e+00, 1.153486e+02, 0.000000e+00, 2.132025e+02, 0.000000e+00
144, 2, 3.940692e+02, 0.000000e+00, 1.153486e+02, 0.000000e+00, 2.132025e+02, 0.000000e+00
144, 3, 3.940692e+02, 0.000000e+00, 1.153486e+02, 0.000000e+00, 2.132025e+02, 0.000000e+00
144, 4, 3.940692e+02, 0.000000e+00, 1.153486e+02, 0.000000e+00, 2.132025e+02, 0.000000e+00
144, 5, 3.940692e+02, 0.000000e+00, 1.153486e+02, 0.000000e+00, 2.132025e+02, 0.000000e+00
144, 6, 3.940692e+02, 0.000000e+00, 1.153486e+02, 0.000000e+00, 2.132025e+02, 0.000000e+00
144, 7, 3.940692e+02, 0.000000e+00, 1.153486e+02, 0.000000e+00, 2.132025e+02, 0.000000e+00
144, 8, 3.940692e+02, 0.000000e+00, 1.153486e+02, 0.000000e+00, 2.132025e+02, 0.000000e+00
145, 1, 3.937165e+02, 0.000000e+00, 1.161565e+02, 0.000000e+00, 2.138521e+02, 0.000000e+00
145, 2, 3.937165e+02, 0.000000e+00, 1.161565e+02, 0.000000e+00, 2.138521e+02, 0.000000e+00
145, 3, 3.937165e+02, 0.000000e+00, 1.161565e+02, 0.000000e+00, 2.138521e+02, 0.000000e+00
145, 4, 3.937165e+02, 0.000000e+00, 1.161565e+02, 0.000000e+00, 2.138521e+02, 0.000000e+00
145, 5, 3.937165e+02, 0.000000e+00, 1.161565e+02, 0.000000e+00, 2.138521e+02, 0.000000e+00
145, 6, 3.937165e+02, 0.000000e+00, 1.161565e+02, 0.000000e+00, 2.138521e+02, 0.000000e+00
145, 7, 3.937165e+02, 0.000000e+00, 1.161565e+02, 0.000000e+00, 2.138521e+02, 0.000000e+00
145, 8, 3.937165e+02, 0.000000e+00, 1.161565e+02, 0.000000e+00, 2.138521e+02, 0.000000e+00
146, 1, 3.934069e+02, 0.000000e+00, 1.168630e+02, 0.000000e+00, 2.144171e+02, 0.000000e+00
146, 2, 3.934069e+02, 0.000000e+00, 1.168630e+02, 0.000000e+00, 2.144171e+02, 0.000000e+00
146, 3, 3.934069e+02, 0.000000e+00, 1.168630e+02, 0.000000e+00, 2.144171e+02, 0.000000e+00
146, 4, 3.934069e+02, 0.000000e+00, 1.168630e+02, 0.000000e+00, 2.144171e+02, 0.000000e+00
146, 5, 3.934069e+02, 0.000000e+00, 1.168630e+02, 0.000000e+00, 2.144171e+02, 0.000000e+00
146, 6, 3.934069e+02, 0.000000e+00, 1.168630e+02, 0.000000e+00, 2.144171e+02, 0.000000e+00
146, 7, 3.934069e+02, 0.000000e+00, 1.168630e+02, 0.000000e+00, 2.144171e+02, 0.000000e+00
146, 8, 3.934069e+02, 0.000000e+00, 1.168630e+02, 0.000000e+00, 2.144171e+02, 0.000000e+00
147, 1, 3.932315e+02, 0.000000e+00, 1.172670e+02, 0.000000e+00, 2.147396e+02, 0.000000e+00
147, 2, 3.932315e+02, 0.000000e+00, 1.172670e+02, 0.000000e+00, 2.147396e+02, 0.000000e+00
147, 3, 3.932315e+02, 0.000000e+00, 1.172670e+02, 0.000000e+00, 2.147396e+02, 0.000000e+00
147, 4, 3.932315e+02, 0.000000e+00, 1.172670e+02, 0.000000e+00, 2.147396e+02, 0.000000e+00
147, 5, 3.932315e+02, 0.000000e+00, 1.172670e+02, 0.000000e+00, 2.147396e+02, 0.000000e+00
147, 6, 3.932315e+02, 0.000000e+00, 1.172670e+02, 0.000000e+00, 2.147396e+02, 0.000000e+00
147, 7, 3.932315e+02, 0.000000e+00, 1.172670e+02, 0.000000e+00, 2.147396e+02, 0.000000e+00
147, 8, 3.932315e+02, 0.000000e+00, 1.172670e+02, 0.000000e+00, 2.147396e+02, 0.000000e+00
148, 1, 3.929775e+02, 0.000000e+00, 1.178552e+02, 0.000000e+00, 2.152079e+02, 0.000000e+00
148, 2, 3.929775e+02, 0.000000e+00, 1.178552e+02, 0.000000e+00, 2.152079e+02, 0.000000e+00
148, 3, 3.929775e+02, 0.000000e+00, 1.178552e+02, 0.000000e+00, 2.152079e+02, 0.000000e+00
148, 4, 3.929775e+02, 0.000000e+00, 1.178552e+02, 0.000000e+00, 2.152079e+02, 0.000000e+00
148, 5, 3.929775e+02, 0.000000e+00, 1.178552e+02, 0.000000e+00, 2.152079e+02, 0.000000e+00
148, 6, 3.929775e+02, 0.000000e+00, 1.178552e+02, 0.000000e+00, 2.152079e+02, 0.000000e+00
148, 7, 3.929775e+02, 0.000000e+00, 1.178552e+02, 0.000000e+00, 2.152079e+02, 0.000000e+00
148, 8, 3.929775e+02, 0.000000e+00, 1.178552e+02, 0.000000e+00, 2.152079e+02, 0.000000e+00
149, 1, 3.926218e+02, 0.000000e+00, 1.186705e+02, 0.000000e+00, 2.158533e+02, 0.000000e+00
149, 2, 3.926218e+02, 0.000000e+00, 1.186705e+02, 0.000000e+00, 2.158533e+02, 0.000000e+00
149, 3, 3.926218e+02, 0.000000e+00, 1.186705e+02, 0.000000e+00, 2.158533e+02, 0.000000e+00
149, 4, 3.926218e+02, 0.000000e+00, 1.186705e+02, 0.000000e+00, 2.158533e+02, 0.000000e+00
149, 5, 3.926218e+02, 0.000000e+00, 1.186705e+02, 0.000000e+00, 2.158533e+02, 0.000000e+00
149, 6, 3.926218e+02, 0.000000e+00, 1.186705e+02, 0.000000e+00, 2.158533e+02, 0.000000e+00
149, 7, 3.926218e+02, 0.000000e+00, 1.186705e+02, 0.000000e+00, 2.158533e+02, 0.000000e+00
149, 8, 3.926218e+02, 0.000000e+00, 1.186705e+02, 0.000000e+00, 2.158533e+02, 0.000000e+00
150, 1, 3.922872e+02, 0.000000e+00, 1.194424e+02, 0.000000e+00, 2.164618e+02, 0.000000e+00
150, 2, 3.922872e+02, 0.000000e+00, 1.194424e+02, 0.000000e+00, 2.164618e+02, 0.000000e+00
150, 3, 3.922872e+02, 0.000000e+00, 1.194424e+02, 0.000000e+00, 2.164618e+02, 0.000000e+00
150, 4, 3.922872e+02, 0.000000e+00, 1.194424e+02, 0.000000e+00, 2.164618e+02, 0.000000e+00
150, 5, 3.922872e+02, 0.000000e+00, 1.194424e+02, 0.000000e+00, 2.164618e+02, 0.000000e+00
150, 6, 3.922872e+02, 0.000000e+00, 1.194424e+02, 0.000000e+00, 2.164618e+02, 0.000000e+00
150, 7, 3.922872e+02, 0.000000e+00, 1.194424e+02, 0.000000e+00, 2.164618e+02, 0.000000e+00
150, 8, 3.922872e+02, 0.000000e+00, 1.194424e+02, 0.000000e+00, 2.164618e+02, 0.000000e+00
151, 1, 3.908667e+02, 0.000000e+00, 1.227218e+02, 0.000000e+00, 2.190156e+02, 0.000000e+00
151, 2, 3.908667e+02, 0.000000e+00, 1.227218e+02, 0.000000e+00, 2.190156e+02, 0.000000e+00
151, 3, 3.908667e+02, 0.000000e+00, 1.227218e+02, 0.000000e+00, 2.190156e+02, 0.000000e+00
151, 4, 3.908667e+02, 0.000000e+00, 1.227218e+02, 0.000000e+00, 2.190156e+02, 0.000000e+00
151, 5, 3.908667e+02, 0.000000e+00, 1.227218e+02, 0.000000e+00, 2.190156e+02, 0.000000e+00
151, 6, 3.908667e+02, 0.000000e+00, 1.227218e+02, 0.000000e+00, 2.190156e+02, 0.000000e+00
151, 7, 3.908667e+02, 0.000000e+00, 1.227218e+02, 0.000000e+00, 2.190156e+02, 0.000000e+00
151, 8, 3.908667e+02, 0.000000e+00, 1.227218e+02, 0.000000e+00, 2.190156e+02, 0.000000e+00
152, 1, 3.906040e+02, 0.000000e+00, 1.233320e+02, 0.000000e+00, 2.194857e+02, 0.000000e+00
152, 2, 3.906040e+02, 0.000000e+00, 1.233320e+02, 0.000000e+00, 2.194857e+02, 0.000000e+00
152, 3, 3.906040e+02, 0.000000e+00, 1.233320e+02, 0.000000e+00, 2.194857e+02, 0.000000e+00
152, 4, 3.906040e+02, 0.000000e+00, 1.233320e+02, 0.000000e+00, 2.194857e+02, 0.000000e+00
152, 5, 3.906040e+02, 0.000000e+00, 1.233320e+02, 0.000000e+00, 2.194857e+02, 0.000000e+00
152, 6, 3.906040e+02, 0.000000e+00, 1.233320e+02, 0.000000e+00, 2.194857e+02, 0.000000e+00
152, 7, 3.906040e+02, 0.000000e+00, 1.233320e+02, 0.000000e+00, 2.194857e+02, 0.000000e+00
152, 8, 3.906040e+02, 0.000000e+00, 1.233320e+02, 0.000000e+00, 2.194857e+02, 0.000000e+00
153, 1, 3.904360e+02, 0.000000e+00, 1.237220e+02, 0.000000e+00, 2.197852e+02, 0.000000e+00
153, 2, 3.904360e+02, 0.000000e+00, 1.237220e+02, 0.000000e+00, 2.197852e+02, 0.000000e+00
153, 3, 3.904360e+02, 0.000000e+00, 1.237220e+02, 0.000000e+00, 2.197852e+02, 0.000000e+00
153, 4, 3.904360e+02, 0.000000e+00, 1.237220e+02, 0.000000e+00, 2.197852e+02, 0.000000e+00
153, 5, 3.904360e+02, 0.000000e+00, 1.237220e+02, 0.000000e+00, 2.197852e+02, 0.000000e+00
153, 6, 3.904360e+02, 0.000000e+00, 1.237220e+02, 0.000000e+00, 2.197852e+02, 0.000000e+00
153, 7, 3.904360e+02, 0.000000e+00, 1.237220e+02, 0.000000e+00, 2.197852e+02, 0.000000e+00
153, 8, 3.904360e+02, 0.000000e+00, 1.237220e+02, 0.000000e+00, 2.197852e+02, 0.000000e+00
154, 1, 4.140068e+02, 2.898978e-37, 1.989682e-03, 1.095535e-17, -9.076023e-01, -2.401675e-20
154, 2, 4.140068e+02, 2.898978e-37, 1.989682e-03, 1.095535e-17, -9.076023e-01, -2.401675e-20
154, 3, 4.140068e+02, 2.898978e-37, 1.989682e-03, 1.095535e-17, -9.076023e-01, -2.401675e-20
154, 4, 4.140068e+02, 2.898978e-37, 1.989682e-03, 1.095535e-17, -9.076023e-01, -2.401675e-20
154, 5, 4.140068e+02, 2.898978e-37, 1.989682e-03, 1.095535e-17, -9.076023e-01, -2.401675e-20
154, 6, 4.140068e+02, 2.898978e-37, 1.989682e-03, 1.095535e-17, -9.076023e-01, -2.401675e-20
154, 7, 4.140068e+02, 2.898978e-37, 1.989682e-03, 1.095535e-17, -9.076023e-01, -2.401675e-20
154, 8, 4.140068e+02, 2.898978e-37, 1.989682e-03, 1.095535e-17, -9.076023e-01, -2.401675e-20
155, 1, 4.140086e+02, 4.619075e-39, 1.332297e-08, -1.382873e-18, -2.348579e-03, 7.844730e-24
155, 2, 4.140086e+02, 4.619075e-39, 1.332297e-08, -1.382873e-18, -2.348579e-03, 7.844730e-24
155, 3, 4.140086e+02, 4.619075e-39, 1.332297e-08, -1.382873e-18, -2.348579e-03, 7.844730e-24
155, 4, 4.140086e+02, 4.619075e-39, 1.332297e-08, -1.382873e-18, -2.348579e-03, 7.844730e-24
155, 5, 4.140086e+02, 4.619075e-39, 1.332297e-08, -1.382873e-18, -2.348579e-03, 7.844730e-24
155, 6, 4.140086e+02, 4.619075e-39, 1.332297e-08, -1.382873e-18, -2.348579e-03, 7.844730e-24
155, 7, 4.140086e+02, 4.619075e-39, 1.332297e-08, -1.382873e-18, -2.348579e-03, 7.844730e-24
155, 8, 4.140086e+02, 4.619075e-39, 1.332297e-08, -1.382873e-18, -2.348579e-03, 7.844730e-24
156, 1, 4.140068e+02, 1.816249e-46, 1.979361e-03, -2.742152e-22, 9.052453e-01, -5.995842e-25
156, 2, 4.140068e+02, 1.816249e-46, 1.979361e-03, -2.742152e-22, 9.052453e-01, -5.995842e-25
156, 3, 4.140068e+02, 1.816249e-46, 1.979361e-03, -2.742152e-22, 9.052453e-01, -5.995842e-25
156, 4, 4.140068e+02, 1.816249e-46, 1.979361e-03, -2.742152e-22, 9.052453e-01, -5.995842e-25
156, 5, 4.140068e+02, 1.816249e-46, 1.979361e-03, -2.742152e-22, 9.052453e-01, -5.995842e-25
156, 6, 4.140068e+02, 1.816249e-46, 1.979361e-03, -2.742152e-22, 9.052453e-01, -5.995842e-25
156, 7, 4.140068e+02, 1.816249e-46, 1.979361e-03, -2.742152e-22, 9.052453e-01, -5.995842e-25
156, 8, 4.140068e+02, 1.816249e-46, 1.979361e-03, -2.742152e-22, 9.052453e-01, -5.995842e-25
157, 1, 3.608724e+02, 3.927922e-31, 1.140927e+02, 1.190579e-14, -2.029111e+02, -6.694379e-15
157, 2, 3.608724e+02, 3.927922e-31, 1.140927e+02, 1.190579e-14, -2.029111e+02, -6.694379e-15
157, 3, 3.608724e+02, 3.927922e-31, 1.140927e+02, 1.190579e-14, -2.029111e+02, -6.694379e-15
157, 4, 3.608724e+02, 3.927922e-31, 1.140927e+02, 1.190579e-14, -2.029111e+02, -6.694379e-15
157, 5, 3.608724e+02, 3.927922e-31, 1.140927e+02, 1.190579e-14, -2.029111e+02, -6.694379e-15
157, 6, 3.608724e+02, 3.927922e-31, 1.140927e+02, 1.190579e-14, -2.029111e+02, -6.694379e-15
157, 7, 3.608724e+02, 3.927922e-31, 1.140927e+02, 1.190579e-14, -2.029111e+02, -6.694379e-15
157, 8, 3.608724e+02, 3.927922e-31, 1.140927e+02, 1.190579e-14, -2.029111e+02, -6.694379e-15
158, 1, 3.610155e+02, 3.915378e-31, 1.137657e+02, 1.188912e-14, -2.026603e+02, -6.674098e-15
158, 2, 3.610155e+02, 3.915378e-31, 1.137657e+02, 1.188912e-14, -2.026603e+02, -6.674098e-15
158, 3, 3.610155e+02, 3.915378e-31, 1.137657e+02, 1.188912e-14, -2.026603e+02, -6.674098e-15
158, 4, 3.610155e+02, 3.915378e-31, 1.137657e+02, 1.188912e-14, -2.026603e+02, -6.674098e-15
158, 5, 3.610155e+02, 3.915378e-31, 1.137657e+02, 1.188912e-14, -2.026603e+02, -6.674098e-15
158, 6, 3.610155e+02, 3.915378e-31, 1.137657e+02, 1.188912e-14, -2.026603e+02, -6.674098e-15
158, 7, 3.610155e+02, 3.915378e-31, 1.137657e+02, 1.188912e-14, -2.026603e+02, -6.674098e-15
158, 8, 3.610155e+02, 3.915378e-31, 1.137657e+02, 1.188912e-14, -2.026603e+02, -6.674098e-15
159, 1, 3.612601e+02, 4.107627e-31, 1.131982e+02, 1.218163e-14, -2.022227e+02, -6.818915e-15
159, 2, 3.612601e+02, 4.107627e-31, 1.131982e+02, 1.218163e-14, -2.022227e+02, -6.818915e-15
159, 3, 3.612601e+02, 4.107627e-31, 1.131982e+02, 1.218163e-14, -2.022227e+02, -6.818915e-15
159, 4, 3.612601e+02, 4.107627e-31, 1.131982e+02, 1.218163e-14, -2.022227e+02, -6.818915e-15
159, 5, 3.612601e+02, 4.107627e-31, 1.131982e+02, 1.218163e-14, -2.022227e+02, -6.818915e-15
159, 6, 3.612601e+02, 4.107627e-31, 1.131982e+02, 1.218163e-14, -2.022227e+02, -6.818915e-15
159, 7, 3.612601e+02, 4.107627e-31, 1.131982e+02, 1.218163e-14, -2.022227e+02, -6.818915e-15
159, 8, 3.612601e+02, 4.107627e-31, 1.131982e+02, 1.218163e-14, -2.022227e+02, -6.818915e-15
160, 1, 4.284793e+02, 2.604422e-33, 6.485906e+01, -1.056381e-15, -1.667056e+02, 4.109992e-16
160, 2, 4.284793e+02, 2.604422e-33, 6.485906e+01, -1.056381e-15, -1.667056e+02, 4.109992e-16
160, 3, 4.284793e+02, 2.604422e-33, 6.485906e+01, -1.056381e-15, -1.667056e+02, 4.109992e-16
160, 4, 4.284793e+02, 2.604422e-33, 6.485906e+01, -1.056381e-15, -1.667056e+02, 4.109992e-16
160, 5, 4.284793e+02, 2.604422e-33, 6.485906e+01, -1.056381e-15, -1.667056e+02, 4.109992e-16
160, 6, 4.284793e+02, 2.604422e-33, 6.485906e+01, -1.056381e-15, -1.667056e+02, 4.109992e-16
160, 7, 4.284793e+02, 2.604422e-33, 6.485906e+01, -1.056381e-15, -1.667056e+02, 4.109992e-16
160, 8, 4.284793e+02, 2.604422e-33, 6.485906e+01, -1.056381e-15, -1.667056e+02, 4.109992e-16
161, 1, 4.288640e+02, 2.484737e-33, 6.403488e+01, -1.032286e-15, -1.657174e+02, 3.988858e-16
161, 2, 4.288640e+02, 2.484737e-33, 6.403488e+01, -1.032286e-15, -1.657174e+02, 3.988858e-16
161, 3, 4.288640e+02, 2.484737e-33, 6.403488e+01, -1.032286e-15, -1.657174e+02, 3.988858e-16
161, 4, 4.288640e+02, 2.484737e-33, 6.403488e+01, -1.032286e-15, -1.657174e+02, 3.988858e-16
161, 5, 4.288640e+02, 2.484737e-33, 6.403488e+01, -1.032286e-15, -1.657174e+02, 3.988858e-16
161, 6, 4.288640e+02, 2.484737e-33, 6.403488e+01, -1.032286e-15, -1.657174e+02, 3.988858e-16
161, 7, 4.288640e+02, 2.484737e-33, 6.403488e+01, -1.032286e-15, -1.657174e+02, 3.988858e-16
161, 8, 4.288640e+02, 2.484737e-33, 6.403488e+01, -1.032286e-15, -1.657174e+02, 3.988858e-16
162, 1, 4.292723e+02, 2.486828e-33, 6.315789e+01, -1.033212e-15, -1.646570e+02, 3.963115e-16
162, 2, 4.292723e+02, 2.486828e-33, 6.315789e+01, -1.033212e-15, -1.646570e+02, 3.963115e-16
162, 3, 4.292723e+02, 2.486828e-33, 6.315789e+01, -1.033212e-15, -1.646570e+02, 3.963115e-16
162, 4, 4.292723e+02, 2.486828e-33, 6.315789e+01, -1.033212e-15, -1.646570e+02, 3.963115e-16
162, 5, 4.292723e+02, 2.486828e-33, 6.315789e+01, -1.033212e-15, -1.646570e+02, 3.963115e-16
162, 6, 4.292723e+02, 2.486828e-33, 6.315789e+01, -1.033212e-15, -1.646570e+02, 3.963115e-16
162, 7, 4.292723e+02, 2.486828e-33, 6.315789e+01, -1.033212e-15, -1.646570e+02, 3.963115e-16
162, 8, 4.292723e+02, 2.486828e-33, 6.315789e+01, -1.033212e-15, -1.646570e+02, 3.963115e-16
163, 1, 4.296775e+02, 2.489070e-33, 6.228637e+01, -1.034165e-15, -1.635942e+02, 3.937450e-16
163, 2, 4.296775e+02, 2.489070e-33, 6.228637e+01, -1.034165e-15, -1.635942e+02, 3.937450e-16
163, 3, 4.296775e+02, 2.489070e-33, 6.228637e+01, -1.034165e-15, -1.635942e+02, 3.937450e-16
163, 4, 4.296775e+02, 2.489070e-33, 6.228637e+01, -1.034165e-15, -1.635942e+02, 3.937450e-16
163, 5, 4.296775e+02, 2.489070e-33, 6.228637e+01, -1.034165e-15, -1.635942e+02, 3.937450e-16
163, 6, 4.296775e+02, 2.489070e-33, 6.228637e+01, -1.034165e-15, -1.635942e+02, 3.937450e-16
163, 7, 4.296775e+02, 2.489070e-33, 6.228637e+01, -1.034165e-15, -1.635942e+02, 3.937450e-16
163, 8, 4.296775e+02, 2.489070e-33, 6.228637e+01, -1.034165e-15, -1.635942e+02, 3.937450e-16
164, 1, 4.300813e+02, 2.491249e-33, 6.142062e+01, -1.035104e-15, -1.625296e+02, 3.911701e-16
164, 2, 4.300813e+02, 2.491249e-33, 6.142062e+01, -1.035104e-15, -1.625296e+02, 3.911701e-16
164, 3, 4.300813e+02, 2.491249e-33, 6.142062e+01, -1.035104e-15, -1.625296e+02, 3.911701e-16
164, 4, 4.300813e+02, 2.491249e-33, 6.142062e+01, -1.035104e-15, -1.625296e+02, 3.911701e-16
164, 5, 4.300813e+02, 2.491249e-33, 6.142062e+01, -1.035104e-15, -1.625296e+02, 3.911701e-16
164, 6, 4.300813e+02, 2.491249e-33, 6.142062e+01, -1.035104e-15, -1.625296e+02, 3.911701e-16
164, 7, 4.300813e+02, 2.491249e-33, 6.142062e+01, -1.035104e-15, -1.625296e+02, 3.911701e-16
164, 8, 4.300813e+02, 2.491249e-33, 6.142062e+01, -1.035104e-15, -1.625296e+02, 3.911701e-16
165, 1, 4.303600e+02, 2.500630e-33, 6.082356e+01, -1.037387e-15, -1.617901e+02, 3.899964e-16
165, 2, 4.303600e+02, 2.500630e-33, 6.082356e+01, -1.037387e-15, -1.617901e+02, 3.899964e-16
165, 3, 4.303600e+02, 2.500630e-33, 6.082356e+01, -1.037387e-15, -1.617901e+02, 3.899964e-16
165, 4, 4.303600e+02, 2.500630e-33, 6.082356e+01, -1.037387e-15, -1.617901e+02, 3.899964e-16
165, 5, 4.303600e+02, 2.500630e-33, 6.082356e+01, -1.037387e-15, -1.617901e+02, 3.899964e-16
165, 6, 4.303600e+02, 2.500630e-33, 6.082356e+01, -1.037387e-15, -1.617901e+02, 3.899964e-16
165, 7, 4.303600e+02, 2.500630e-33, 6.082356e+01, -1.037387e-15, -1.617901e+02, 3.899964e-16
165, 8, 4.303600e+02, 2.500630e-33, 6.082356e+01, -1.037387e-15, -1.617901e+02, 3.899964e-16
166, 1, 4.305867e+02, 2.495720e-33, 6.033669e+01, -1.036641e-15, -1.611837e+02, 3.880509e-16
166, 2, 4.305867e+02, 2.495720e-33, 6.033669e+01, -1.036641e-15, -1.611837e+02, 3.880509e-16
166, 3, 4.305867e+02, 2.495720e-33, 6.033669e+01, -1.036641e-15, -1.611837e+02, 3.880509e-16
166, 4, 4.305867e+02, 2.495720e-33, 6.033669e+01, -1.036641e-15, -1.611837e+02, 3.880509e-16
166, 5, 4.305867e+02, 2.495720e-33, 6.033669e+01, -1.036641e-15, -1.611837e+02, 3.880509e-16
166, 6, 4.305867e+02, 2.495720e-33, 6.033669e+01, -1.036641e-15, -1.611837e+02, 3.880509e-16
166, 7, 4.305867e+02, 2.495720e-33, 6.033669e+01, -1.036641e-15, -1.611837e+02, 3.880509e-16
166, 8, 4.305867e+02, 2.495720e-33, 6.033669e+01, -1.036641e-15, -1.611837e+02, 3.880509e-16
167, 1, 4.309271e+02, 2.495787e-33, 5.961287e+01, -1.037064e-15, -1.602773e+02, 3.857215e-16
167, 2, 4.309271e+02, 2.495787e-33, 5.961287e+01, -1.037064e-15, -1.602773e+02, 3.857215e-16
167, 3, 4.309271e+02, 2.495787e-33, 5.961287e+01, -1.037064e-15, -1.602773e+02, 3.857215e-16
167, 4, 4.309271e+02, 2.495787e-33, 5.961287e+01, -1.037064e-15, -1.602773e+02, 3.857215e-16
167, 5, 4.309271e+02, 2.495787e-33, 5.961287e+01, -1.037064e-15, -1.602773e+02, 3.857215e-16
167, 6, 4.309271e+02, 2.495787e-33, 5.961287e+01, -1.037064e-15, -1.602773e+02, 3.857215e-16
167, 7, 4.309271e+02, 2.495787e-33, 5.961287e+01, -1.037064e-15, -1.602773e+02, 3.857215e-16
167, 8, 4.309271e+02, 2.495787e-33, 5.961287e+01, -1.037064e-15, -1.602773e+02, 3.857215e-16
168, 1, 4.313226e+02, 2.497886e-33, 5.876449e+01, -1.037976e-15, -1.592057e+02, 3.831279e-16
168, 2, 4.313226e+02, 2.497886e-33, 5.876449e+01, -1.037976e-15, -1.592057e+02, 3.831279e-16
168, 3, 4.313226e+02, 2.497886e-33, 5.876449e+01, -1.037976e-15, -1.592057e+02, 3.831279e-16
168, 4, 4.313226e+02, 2.497886e-33, 5.876449e+01, -1.037976e-15, -1.592057e+02, 3.831279e-16
168, 5, 4.313226e+02, 2.497886e-33, 5.876449e+01, -1.037976e-15, -1.592057e+02, 3.831279e-16
168, 6, 4.313226e+02, 2.497886e-33, 5.876449e+01, -1.037976e-15, -1.592057e+02, 3.831279e-16
168, 7, 4.313226e+02, 2.497886e-33, 5.876449e+01, -1.037976e-15, -1.592057e+02, 3.831279e-16
168, 8, 4.313226e+02, 2.497886e-33, 5.876449e+01, -1.037976e-15, -1.592057e+02, 3.831279e-16
169, 1, 4.317167e+02, 2.499997e-33, 5.792191e+01, -1.038889e-15, -1.581324e+02, 3.805320e-16
169, 2, 4.317167e+02, 2.499997e-33, 5.792191e+01, -1.038889e-15, -1.581324e+02, 3.805320e-16
169, 3, 4.317167e+02, 2.499997e-33, 5.792191e+01, -1.038889e-15, -1.581324e+02, 3.805320e-16
169, 4, 4.317167e+02, 2.499997e-33, 5.792191e+01, -1.038889e-15, -1.581324e+02, 3.805320e-16
169, 5, 4.317167e+02, 2.499997e-33, 5.792191e+01, -1.038889e-15, -1.581324e+02, 3.805320e-16
169, 6, 4.317167e+02, 2.499997e-33, 5.792191e+01, -1.038889e-15, -1.581324e+02, 3.805320e-16
169, 7, 4.317167e+02, 2.499997e-33, 5.792191e+01, -1.038889e-15, -1.581324e+02, 3.805320e-16
169, 8, 4.317167e+02, 2.499997e-33, 5.792191e+01, -1.038889e-15, -1.581324e+02, 3.805320e-16
170, 1, 4.321095e+02, 2.502134e-33, 5.708514e+01, -1.039806e-15, -1.570574e+02, 3.779348e-16
170, 2, 4.321095e+02, 2.502134e-33, 5.708514e+01, -1.039806e-15, -1.570574e+02, 3.779348e-16
170, 3, 4.321095e+02, 2.502134e-33, 5.708514e+01, -1.039806e-15, -1.570574e+02, 3.779348e-16
170, 4, 4.321095e+02, 2.502134e-33, 5.708514e+01, -1.039806e-15, -1.570574e+02, 3.779348e-16
170, 5, 4.321095e+02, 2.502134e-33, 5.708514e+01, -1.039806e-15, -1.570574e+02, 3.779348e-16
170, 6, 4.321095e+02, 2.502134e-33, 5.708514e+01, -1.039806e-15, -1.570574e+02, 3.779348e-16
170, 7, 4.321095e+02, 2.502134e-33, 5.708514e+01, -1.039806e-15, -1.570574e+02, 3.779348e-16
170, 8, 4.321095e+02, 2.502134e-33, 5.708514e+01, -1.039806e-15, -1.570574e+02, 3.779348e-16
171, 1, 4.324990e+02, 2.504221e-33, 5.625393e+01, -1.040708e-15, -1.559800e+02, 3.753296e-16
171, 2, 4.324990e+02, 2.504221e-33, 5.625393e+01, -1.040708e-15, -1.559800e+02, 3.753296e-16
171, 3, 4.324990e+02, 2.504221e-33, 5.625393e+01, -1.040708e-15, -1.559800e+02, 3.753296e-16
171, 4, 4.324990e+02, 2.504221e-33, 5.625393e+01, -1.040708e-15, -1.559800e+02, 3.753296e-16
171, 5, 4.324990e+02, 2.504221e-33, 5.625393e+01, -1.040708e-15, -1.559800e+02, 3.753296e-16
171, 6, 4.324990e+02, 2.504221e-33, 5.625393e+01, -1.040708e-15, -1.559800e+02, 3.753296e-16
171, 7, 4.324990e+02, 2.504221e-33, 5.625393e+01, -1.040708e-15, -1.559800e+02, 3.753296e-16
171, 8, 4.324990e+02, 2.504221e-33, 5.625393e+01, -1.040708e-15, -1.559800e+02, 3.753296e-16
172, 1, 4.328266e+02, 2.508336e-33, 5.555404e+01, -1.041957e-15, -1.550654e+02, 3.732938e-16
172, 2, 4.328266e+02, 2.508336e-33, 5.555404e+01, -1.041957e-15, -1.550654e+02, 3.732938e-16
172, 3, 4.328266e+02, 2.508336e-33, 5.555404e+01, -1.041957e-15, -1.550654e+02, 3.732938e-16
172, 4, 4.328266e+02, 2.508336e-33, 5.555404e+01, -1.041957e-15, -1.550654e+02, 3.732938e-16
172, 5, 4.328266e+02, 2.508336e-33, 5.555404e+01, -1.041957e-15, -1.550654e+02, 3.732938e-16
172, 6, 4.328266e+02, 2.508336e-33, 5.555404e+01, -1.041957e-15, -1.550654e+02, 3.732938e-16
172, 7, 4.328266e+02, 2.508336e-33, 5.555404e+01, -1.041957e-15, -1.550654e+02, 3.732938e-16
172, 8, 4.328266e+02, 2.508336e-33, 5.555404e+01, -1.041957e-15, -1.550654e+02, 3.732938e-16
173, 1, 4.330471e+02, 2.507740e-33, 5.508697e+01, -1.042098e-15, -1.544514e+02, 3.716770e-16
173, 2, 4.330471e+02, 2.507740e-33, 5.508697e+01, -1.042098e-15, -1.544514e+02, 3.716770e-16
173, 3, 4.330471e+02, 2.507740e-33, 5.508697e+01, -1.042098e-15, -1.544514e+02, 3.716770e-16
173, 4, 4.330471e+02, 2.507740e-33, 5.508697e+01, -1.042098e-15, -1.544514e+02, 3.716770e-16
173, 5, 4.330471e+02, 2.507740e-33, 5.508697e+01, -1.042098e-15, -1.544514e+02, 3.716770e-16
173, 6, 4.330471e+02, 2.507740e-33, 5.508697e+01, -1.042098e-15, -1.544514e+02, 3.716770e-16
173, 7, 4.330471e+02, 2.507740e-33, 5.508697e+01, -1.042098e-15, -1.544514e+02, 3.716770e-16
173, 8, 4.330471e+02, 2.507740e-33, 5.508697e+01, -1.042098e-15, -1.544514e+02, 3.716770e-16
174, 1, 4.333147e+02, 2.508435e-33, 5.451883e+01, -1.042565e-15, -1.537004e+02, 3.698066e-16
174, 2, 4.333147e+02, 2.508435e-33, 5.451883e+01, -1.042565e-15, -1.537004e+02, 3.698066e-16
174, 3, 4.333147e+02, 2.508435e-33, 5.451883e+01, -1.042565e-15, -1.537004e+02, 3.698066e-16
174, 4, 4.333147e+02, 2.508435e-33, 5.451883e+01, -1.042565e-15, -1.537004e+02, 3.698066e-16
174, 5, 4.333147e+02, 2.508435e-33, 5.451883e+01, -1.042565e-15, -1.537004e+02, 3.698066e-16
174, 6, 4.333147e+02, 2.508435e-33, 5.451883e+01, -1.042565e-15, -1.537004e+02, 3.698066e-16
174, 7, 4.333147e+02, 2.508435e-33, 5.451883e+01, -1.042565e-15, -1.537004e+02, 3.698066e-16
174, 8, 4.333147e+02, 2.508435e-33, 5.451883e+01, -1.042565e-15, -1.537004e+02, 3.698066e-16
175, 1, 4.336976e+02, 2.510707e-33, 5.370546e+01, -1.043498e-15, -1.526169e+02, 3.672038e-16
175, 2, 4.336976e+02, 2.510707e-33, 5.370546e+01, -1.043498e-15, -1.526169e+02, 3.672038e-16
175, 3, 4.336976e+02, 2.510707e-33, 5.370546e+01, -1.043498e-15, -1.526169e+02, 3.672038e-16
175, 4, 4.336976e+02, 2.510707e-33, 5.370546e+01, -1.043498e-15, -1.526169e+02, 3.672038e-16
175, 5, 4.336976e+02, 2.510707e-33, 5.370546e+01, -1.043498e-15, -1.526169e+02, 3.672038e-16
175, 6, 4.336976e+02, 2.510707e-33, 5.370546e+01, -1.043498e-15, -1.526169e+02, 3.672038e-16
175, 7, 4.336976e+02, 2.510707e-33, 5.370546e+01, -1.043498e-15, -1.526169e+02, 3.672038e-16
175, 8, 4.336976e+02, 2.510707e-33, 5.370546e+01, -1.043498e-15, -1.526169e+02, 3.672038e-16
176, 1, 4.340770e+02, 2.512781e-33, 5.289771e+01, -1.044385e-15, -1.515311e+02, 3.645825e-16
176, 2, 4.340770e+02, 2.512781e-33, 5.289771e+01, -1.044385e-15, -1.515311e+02, 3.645825e-16
176, 3, 4.340770e+02, 2.512781e-33, 5.289771e+01, -1.044385e-15, -1.515311e+02, 3.645825e-16
176, 4, 4.340770e+02, 2.512781e-33, 5.289771e+01, -1.044385e-15, -1.515311e+02, 3.645825e-16
176, 5, 4.340770e+02, 2.512781e-33, 5.289771e+01, -1.044385e-15, -1.515311e+02, 3.645825e-16
176, 6, 4.340770e+02, 2.512781e-33, 5.289771e+01, -1.044385e-15, -1.515311e+02, 3.645825e-16
176, 7, 4.340770e+02, 2.512781e-33, 5.289771e+01, -1.044385e-15, -1.515311e+02, 3.645825e-16
176, 8, 4.340770e+02, 2.512781e-33, 5.289771e+01, -1.044385e-15, -1.515311e+02, 3.645825e-16
177, 1, 4.344571e+02, 2.514815e-33, 5.209606e+01, -1.045265e-15, -1.504444e+02, 3.619558e-16
177, 2, 4.344571e+02, 2.514815e-33, 5.209606e+01, -1.045265e-15, -1.504444e+02, 3.619558e-16
177, 3, 4.344571e+02, 2.514815e-33, 5.209606e+01, -1.045265e-15, -1.504444e+02, 3.619558e-16
177, 4, 4.344571e+02, 2.514815e-33, 5.209606e+01, -1.045265e-15, -1.504444e+02, 3.619558e-16
177, 5, 4.344571e+02, 2.514815e-33, 5.209606e+01, -1.045265e-15, -1.504444e+02, 3.619558e-16
177, 6, 4.344571e+02, 2.514815e-33, 5.209606e+01, -1.045265e-15, -1.504444e+02, 3.619558e-16
177, 7, 4.344571e+02, 2.514815e-33, 5.209606e+01, -1.045265e-15, -1.504444e+02, 3.619558e-16
177, 8, 4.344571e+02, 2.514815e-33, 5.209606e+01, -1.045265e-15, -1.504444e+02, 3.619558e-16
178, 1, 4.348318e+02, 2.516788e-33, 5.129981e+01, -1.046126e-15, -1.493546e+02, 3.593198e-16
178, 2, 4.348318e+02, 2.516788e-33, 5.129981e+01, -1.046126e-15, -1.493546e+02, 3.593198e-16
178, 3, 4.348318e+02, 2.516788e-33, 5.129981e+01, -1.046126e-15, -1.493546e+02, 3.593198e-16
178, 4, 4.348318e+02, 2.516788e-33, 5.129981e+01, -1.046126e-15, -1.493546e+02, 3.593198e-16
178, 5, 4.348318e+02, 2.516788e-33, 5.129981e+01, -1.046126e-15, -1.493546e+02, 3.593198e-16
178, 6, 4.348318e+02, 2.516788e-33, 5.129981e+01, -1.046126e-15, -1.493546e+02, 3.593198e-16
178, 7, 4.348318e+02, 2.516788e-33, 5.129981e+01, -1.046126e-15, -1.493546e+02, 3.593198e-16
178, 8, 4.348318e+02, 2.516788e-33, 5.129981e+01, -1.046126e-15, -1.493546e+02, 3.593198e-16
179, 1, 4.352052e+02, 2.519913e-33, 5.050944e+01, -1.047224e-15, -1.482632e+02, 3.567624e-16
179, 2, 4.352052e+02, 2.519913e-33, 5.050944e+01, -1.047224e-15, -1.482632e+02, 3.567624e-16
179, 3, 4.352052e+02, 2.519913e-33, 5.050944e+01, -1.047224e-15, -1.482632e+02, 3.567624e-16
179, 4, 4.352052e+02, 2.519913e-33, 5.050944e+01, -1.047224e-15, -1.482632e+02, 3.567624e-16
179, 5, 4.352052e+02, 2.519913e-33, 5.050944e+01, -1.047224e-15, -1.482632e+02, 3.567624e-16
179, 6, 4.352052e+02, 2.519913e-33, 5.050944e+01, -1.047224e-15, -1.482632e+02, 3.567624e-16
179, 7, 4.352052e+02, 2.519913e-33, 5.050944e+01, -1.047224e-15, -1.482632e+02, 3.567624e-16
179, 8, 4.352052e+02, 2.519913e-33, 5.050944e+01, -1.047224e-15, -1.482632e+02, 3.567624e-16
180, 1, 4.364391e+02, 2.525730e-33, 4.789876e+01, -1.049918e-15, -1.445852e+02, 3.478209e-16
180, 2, 4.364391e+02, 2.525730e-33, 4.789876e+01, -1.049918e-15, -1.445852e+02, 3.478209e-16
180, 3, 4.364391e+02, 2.525730e-33, 4.789876e+01, -1.049918e-15, -1.445852e+02, 3.478209e-16
180, 4, 4.364391e+02, 2.525730e-33, 4.789876e+01, -1.049918e-15, -1.445852e+02, 3.478209e-16
180, 5, 4.364391e+02, 2.525730e-33, 4.789876e+01, -1.049918e-15, -1.445852e+02, 3.478209e-16
180, 6, 4.364391e+02, 2.525730e-33, 4.789876e+01, -1.049918e-15, -1.445852e+02, 3.478209e-16
180, 7, 4.364391e+02, 2.525730e-33, 4.789876e+01, -1.049918e-15, -1.445852e+02, 3.478209e-16
180, 8, 4.364391e+02, 2.525730e-33, 4.789876e+01, -1.049918e-15, -1.445852e+02, 3.478209e-16
181, 1, 4.368027e+02, 2.527698e-33, 4.713373e+01, -1.050764e-15, -1.434857e+02, 3.451664e-16
181, 2, 4.368027e+02, 2.527698e-33, 4.713373e+01, -1.050764e-15, -1.434857e+02, 3.451664e-16
181, 3, 4.368027e+02, 2.527698e-33, 4.713373e+01, -1.050764e-15, -1.434857e+02, 3.451664e-16
181, 4, 4.368027e+02, 2.527698e-33, 4.713373e+01, -1.050764e-15, -1.434857e+02, 3.451664e-16
181, 5, 4.368027e+02, 2.527698e-33, 4.713373e+01, -1.050764e-15, -1.434857e+02, 3.451664e-16
181, 6, 4.368027e+02, 2.527698e-33, 4.713373e+01, -1.050764e-15, -1.434857e+02, 3.451664e-16
181, 7, 4.368027e+02, 2.527698e-33, 4.713373e+01, -1.050764e-15, -1.434857e+02, 3.451664e-16
181, 8, 4.368027e+02, 2.527698e-33, 4.713373e+01, -1.050764e-15, -1.434857e+02, 3.451664e-16
182, 1, 4.371629e+02, 2.529783e-33, 4.637442e+01, -1.051631e-15, -1.423839e+02, 3.425160e-16
182, 2, 4.371629e+02, 2.529783e-33, 4.637442e+01, -1.051631e-15, -1.423839e+02, 3.425160e-16
182, 3, 4.371629e+02, 2.529783e-33, 4.637442e+01, -1.051631e-15, -1.423839e+02, 3.425160e-16
182, 4, 4.371629e+02, 2.529783e-33, 4.637442e+01, -1.051631e-15, -1.423839e+02, 3.425160e-16
182, 5, 4.371629e+02, 2.529783e-33, 4.637442e+01, -1.051631e-15, -1.423839e+02, 3.425160e-16
182, 6, 4.371629e+02, 2.529783e-33, 4.637442e+01, -1.051631e-15, -1.423839e+02, 3.425160e-16
182, 7, 4.371629e+02, 2.529783e-33, 4.637442e+01, -1.051631e-15, -1.423839e+02, 3.425160e-16
182, 8, 4.371629e+02, 2.529783e-33, 4.637442e+01, -1.051631e-15, -1.423839e+02, 3.425160e-16
183, 1, 4.375217e+02, 2.531738e-33, 4.562103e+01, -1.052469e-15, -1.412805e+02, 3.398536e-16
183, 2, 4.375217e+02, 2.531738e-33, 4.562103e+01, -1.052469e-15, -1.412805e+02, 3.398536e-16
183, 3, 4.375217e+02, 2.531738e-33, 4.562103e+01, -1.052469e-15, -1.412805e+02, 3.398536e-16
183, 4, 4.375217e+02, 2.531738e-33, 4.562103e+01, -1.052469e-15, -1.412805e+02, 3.398536e-16
183, 5, 4.375217e+02, 2.531738e-33, 4.562103e+01, -1.052469e-15, -1.412805e+02, 3.398536e-16
183, 6, 4.375217e+02, 2.531738e-33, 4.562103e+01, -1.052469e-15, -1.412805e+02, 3.398536e-16
183, 7, 4.375217e+02, 2.531738e-33, 4.562103e+01, -1.052469e-15, -1.412805e+02, 3.398536e-16
183, 8, 4.375217e+02, 2.531738e-33, 4.562103e+01, -1.052469e-15, -1.412805e+02, 3.398536e-16
184, 1, 4.378769e+02, 2.533683e-33, 4.487339e+01, -1.053300e-15, -1.401750e+02, 3.371868e-16
184, 2, 4.378769e+02, 2.533683e-33, 4.487339e+01, -1.053300e-15, -1.401750e+02, 3.371868e-16
184, 3, 4.378769e+02, 2.533683e-33, 4.487339e+01, -1.053300e-15, -1.401750e+02, 3.371868e-16
184, 4, 4.378769e+02, 2.533683e-33, 4.487339e+01, -1.053300e-15, -1.401750e+02, 3.371868e-16
184, 5, 4.378769e+02, 2.533683e-33, 4.487339e+01, -1.053300e-15, -1.401750e+02, 3.371868e-16
184, 6, 4.378769e+02, 2.533683e-33, 4.487339e+01, -1.053300e-15, -1.401750e+02, 3.371868e-16
184, 7, 4.378769e+02, 2.533683e-33, 4.487339e+01, -1.053300e-15, -1.401750e+02, 3.371868e-16
184, 8, 4.378769e+02, 2.533683e-33, 4.487339e+01, -1.053300e-15, -1.401750e+02, 3.371868e-16
185, 1, 4.382307e+02, 2.535649e-33, 4.413169e+01, -1.054134e-15, -1.390678e+02, 3.345183e-16
185, 2, 4.382307e+02, 2.535649e-33, 4.413169e+01, -1.054134e-15, -1.390678e+02, 3.345183e-16
185, 3, 4.382307e+02, 2.535649e-33, 4.413169e+01, -1.054134e-15, -1.390678e+02, 3.345183e-16
185, 4, 4.382307e+02, 2.535649e-33, 4.413169e+01, -1.054134e-15, -1.390678e+02, 3.345183e-16
185, 5, 4.382307e+02, 2.535649e-33, 4.413169e+01, -1.054134e-15, -1.390678e+02, 3.345183e-16
185, 6, 4.382307e+02, 2.535649e-33, 4.413169e+01, -1.054134e-15, -1.390678e+02, 3.345183e-16
185, 7, 4.382307e+02, 2.535649e-33, 4.413169e+01, -1.054134e-15, -1.390678e+02, 3.345183e-16
185, 8, 4.382307e+02, 2.535649e-33, 4.413169e+01, -1.054134e-15, -1.390678e+02, 3.345183e-16
186, 1, 4.384742e+02, 2.527920e-33, 4.361689e+01, -1.052819e-15, -1.382927e+02, 3.320542e-16
186, 2, 4.384742e+02, 2.527920e-33, 4.361689e+01, -1.052819e-15, -1.382927e+02, 3.320542e-16
186, 3, 4.384742e+02, 2.527920e-33, 4.361689e+01, -1.052819e-15, -1.382927e+02, 3.320542e-16
186, 4, 4.384742e+02, 2.527920e-33, 4.361689e+01, -1.052819e-15, -1.382927e+02, 3.320542e-16
186, 5, 4.384742e+02, 2.527920e-33, 4.361689e+01, -1.052819e-15, -1.382927e+02, 3.320542e-16
186, 6, 4.384742e+02, 2.527920e-33, 4.361689e+01, -1.052819e-15, -1.382927e+02, 3.320542e-16
186, 7, 4.384742e+02, 2.527920e-33, 4.361689e+01, -1.052819e-15, -1.382927e+02, 3.320542e-16
186, 8, 4.384742e+02, 2.527920e-33, 4.361689e+01, -1.052819e-15, -1.382927e+02, 3.320542e-16
187, 1, 4.386726e+02, 2.542232e-33, 4.320317e+01, -1.056034e-15, -1.376664e+02, 3.314099e-16
187, 2, 4.386726e+02, 2.542232e-33, 4.320317e+01, -1.056034e-15, -1.376664e+02, 3.314099e-16
187, 3, 4.386726e+02, 2.542232e-33, 4.320317e+01, -1.056034e-15, -1.376664e+02, 3.314099e-16
187, 4, 4.386726e+02, 2.542232e-33, 4.320317e+01, -1.056034e-15, -1.376664e+02, 3.314099e-16
187, 5, 4.386726e+02, 2.542232e-33, 4.320317e+01, -1.056034e-15, -1.376664e+02, 3.314099e-16
187, 6, 4.386726e+02, 2.542232e-33, 4.320317e+01, -1.056034e-15, -1.376664e+02, 3.314099e-16
187, 7, 4.386726e+02, 2.542232e-33, 4.320317e+01, -1.056034e-15, -1.376664e+02, 3.314099e-16
187, 8, 4.386726e+02, 2.542232e-33, 4.320317e+01, -1.056034e-15, -1.376664e+02, 3.314099e-16
188, 1, 4.389661e+02, 2.539817e-33, 4.258455e+01, -1.055885e-15, -1.367230e+02, 3.288723e-16
188, 2, 4.389661e+02, 2.539817e-33, 4.258455e+01, -1.055885e-15, -1.367230e+02, 3.288723e-16
188, 3, 4.389661e+02, 2.539817e-33, 4.258455e+01, -1.055885e-15, -1.367230e+02, 3.288723e-16
188, 4, 4.389661e+02, 2.539817e-33, 4.258455e+01, -1.055885e-15, -1.367230e+02, 3.288723e-16
188, 5, 4.389661e+02, 2.539817e-33, 4.258455e+01, -1.055885e-15, -1.367230e+02, 3.288723e-16
188, 6, 4.389661e+02, 2.539817e-33, 4.258455e+01, -1.055885e-15, -1.367230e+02, 3.288723e-16
188, 7, 4.389661e+02, 2.539817e-33, 4.258455e+01, -1.055885e-15, -1.367230e+02, 3.288723e-16
188, 8, 4.389661e+02, 2.539817e-33, 4.258455e+01, -1.055885e-15, -1.367230e+02, 3.288723e-16
189, 1, 4.393128e+02, 2.541776e-33, 4.186119e+01, -1.056709e-15, -1.356103e+02, 3.261929e-16
189, 2, 4.393128e+02, 2.541776e-33, 4.186119e+01, -1.056709e-15, -1.356103e+02, 3.261929e-16
189, 3, 4.393128e+02, 2.541776e-33, 4.186119e+01, -1.056709e-15, -1.356103e+02, 3.261929e-16
189, 4, 4.393128e+02, 2.541776e-33, 4.186119e+01, -1.056709e-15, -1.356103e+02, 3.261929e-16
189, 5, 4.393128e+02, 2.541776e-33, 4.186119e+01, -1.056709e-15, -1.356103e+02, 3.261929e-16
189, 6, 4.393128e+02, 2.541776e-33, 4.186119e+01, -1.056709e-15, -1.356103e+02, 3.261929e-16
189, 7, 4.393128e+02, 2.541776e-33, 4.186119e+01, -1.056709e-15, -1.356103e+02, 3.261929e-16
189, 8, 4.393128e+02, 2.541776e-33, 4.186119e+01, -1.056709e-15, -1.356103e+02, 3.261929e-16
190, 1, 4.396559e+02, 2.543566e-33, 4.114362e+01, -1.057494e-15, -1.344955e+02, 3.234989e-16
190, 2, 4.396559e+02, 2.543566e-33, 4.114362e+01, -1.057494e-15, -1.344955e+02, 3.234989e-16
190, 3, 4.396559e+02, 2.543566e-33, 4.114362e+01, -1.057494e-15, -1.344955e+02, 3.234989e-16
190, 4, 4.396559e+02, 2.543566e-33, 4.114362e+01, -1.057494e-15, -1.344955e+02, 3.234989e-16
190, 5, 4.396559e+02, 2.543566e-33, 4.114362e+01, -1.057494e-15, -1.344955e+02, 3.234989e-16
190, 6, 4.396559e+02, 2.543566e-33, 4.114362e+01, -1.057494e-15, -1.344955e+02, 3.234989e-16
190, 7, 4.396559e+02, 2.543566e-33, 4.114362e+01, -1.057494e-15, -1.344955e+02, 3.234989e-16
190, 8, 4.396559e+02, 2.543566e-33, 4.114362e+01, -1.057494e-15, -1.344955e+02, 3.234989e-16
191, 1, 4.399934e+02, 2.545510e-33, 4.043167e+01, -1.058304e-15, -1.333779e+02, 3.208102e-16
191, 2, 4.399934e+02, 2.545510e-33, 4.043167e+01, -1.058304e-15, -1.333779e+02, 3.208102e-16
191, 3, 4.399934e+02, 2.545510e-33, 4.043167e+01, -1.058304e-15, -1.333779e+02, 3.208102e-16
191, 4, 4.399934e+02, 2.545510e-33, 4.043167e+01, -1.058304e-15, -1.333779e+02, 3.208102e-16
191, 5, 4.399934e+02, 2.545510e-33, 4.043167e+01, -1.058304e-15, -1.333779e+02, 3.208102e-16
191, 6, 4.399934e+02, 2.545510e-33, 4.043167e+01, -1.058304e-15, -1.333779e+02, 3.208102e-16
191, 7, 4.399934e+02, 2.545510e-33, 4.043167e+01, -1.058304e-15, -1.333779e+02, 3.208102e-16
191, 8, 4.399934e+02, 2.545510e-33, 4.043167e+01, -1.058304e-15, -1.333779e+02, 3.208102e-16
192, 1, 4.403334e+02, 2.547395e-33, 3.972611e+01, -1.059105e-15, -1.322601e+02, 3.181165e-16
192, 2, 4.403334e+02, 2.547395e-33, 3.972611e+01, -1.059105e-15, -1.322601e+02, 3.181165e-16
192, 3, 4.403334e+02, 2.547395e-33, 3.972611e+01, -1.059105e-15, -1.322601e+02, 3.181165e-16
192, 4, 4.403334e+02, 2.547395e-33, 3.972611e+01, -1.059105e-15, -1.322601e+02, 3.181165e-16
192, 5, 4.403334e+02, 2.547395e-33, 3.972611e+01, -1.059105e-15, -1.322601e+02, 3.181165e-16
192, 6, 4.403334e+02, 2.547395e-33, 3.972611e+01, -1.059105e-15, -1.322601e+02, 3.181165e-16
192, 7, 4.403334e+02, 2.547395e-33, 3.972611e+01, -1.059105e-15, -1.322601e+02, 3.181165e-16
192, 8, 4.403334e+02, 2.547395e-33, 3.972611e+01, -1.059105e-15, -1.322601e+02, 3.181165e-16
193, 1, 4.406157e+02, 2.553920e-33, 3.913222e+01, -1.060800e-15, -1.313098e+02, 3.161338e-16
193, 2, 4.406157e+02, 2.553920e-33, 3.913222e+01, -1.060800e-15, -1.313098e+02, 3.161338e-16
193, 3, 4.406157e+02, 2.553920e-33, 3.913222e+01, -1.060800e-15, -1.313098e+02, 3.161338e-16
193, 4, 4.406157e+02, 2.553920e-33, 3.913222e+01, -1.060800e-15, -1.313098e+02, 3.161338e-16
193, 5, 4.406157e+02, 2.553920e-33, 3.913222e+01, -1.060800e-15, -1.313098e+02, 3.161338e-16
193, 6, 4.406157e+02, 2.553920e-33, 3.913222e+01, -1.060800e-15, -1.313098e+02, 3.161338e-16
193, 7, 4.406157e+02, 2.553920e-33, 3.913222e+01, -1.060800e-15, -1.313098e+02, 3.161338e-16
193, 8, 4.406157e+02, 2.553920e-33, 3.913222e+01, -1.060800e-15, -1.313098e+02, 3.161338e-16
194, 1, 4.408063e+02, 2.538333e-33, 3.873530e+01, -1.057787e-15, -1.306704e+02, 3.135651e-16
194, 2, 4.408063e+02, 2.538333e-33, 3.873530e+01, -1.057787e-15, -1.306704e+02, 3.135651e-16
194, 3, 4.408063e+02, 2.538333e-33, 3.873530e+01, -1.057787e-15, -1.306704e+02, 3.135651e-16
194, 4, 4.408063e+02, 2.538333e-33, 3.873530e+01, -1.057787e-15, -1.306704e+02, 3.135651e-16
194, 5, 4.408063e+02, 2.538333e-33, 3.873530e+01, -1.057787e-15, -1.306704e+02, 3.135651e-16
194, 6, 4.408063e+02, 2.538333e-33, 3.873530e+01, -1.057787e-15, -1.306704e+02, 3.135651e-16
194, 7, 4.408063e+02, 2.538333e-33, 3.873530e+01, -1.057787e-15, -1.306704e+02, 3.135651e-16
194, 8, 4.408063e+02, 2.538333e-33, 3.873530e+01, -1.057787e-15, -1.306704e+02, 3.135651e-16
195, 1, 4.410357e+02, 2.551375e-33, 3.825475e+01, -1.060777e-15, -1.298912e+02, 3.124136e-16
195, 2, 4.410357e+02, 2.551375e-33, 3.825475e+01, -1.060777e-15, -1.298912e+02, 3.124136e-16
195, 3, 4.410357e+02, 2.551375e-33, 3.825475e+01, -1.060777e-15, -1.298912e+02, 3.124136e-16
195, 4, 4.410357e+02, 2.551375e-33, 3.825475e+01, -1.060777e-15, -1.298912e+02, 3.124136e-16
195, 5, 4.410357e+02, 2.551375e-33, 3.825475e+01, -1.060777e-15, -1.298912e+02, 3.124136e-16
195, 6, 4.410357e+02, 2.551375e-33, 3.825475e+01, -1.060777e-15, -1.298912e+02, 3.124136e-16
195, 7, 4.410357e+02, 2.551375e-33, 3.825475e+01, -1.060777e-15, -1.298912e+02, 3.124136e-16
195, 8, 4.410357e+02, 2.551375e-33, 3.825475e+01, -1.060777e-15, -1.298912e+02, 3.124136e-16
196, 1, 4.413664e+02, 2.553271e-33, 3.756752e+01, -1.061569e-15, -1.287674e+02, 3.097096e-16
196, 2, 4.413664e+02, 2.553271e-33, 3.756752e+01, -1.061569e-15, -1.287674e+02, 3.097096e-16
196, 3, 4.413664e+02, 2.553271e-33, 3.756752e+01, -1.061569e-15, -1.287674e+02, 3.097096e-16
196, 4, 4.413664e+02, 2.553271e-33, 3.756752e+01, -1.061569e-15, -1.287674e+02, 3.097096e-16
196, 5, 4.413664e+02, 2.553271e-33, 3.756752e+01, -1.061569e-15, -1.287674e+02, 3.097096e-16
196, 6, 4.413664e+02, 2.553271e-33, 3.756752e+01, -1.061569e-15, -1.287674e+02, 3.097096e-16
196, 7, 4.413664e+02, 2.553271e-33, 3.756752e+01, -1.061569e-15, -1.287674e+02, 3.097096e-16
196, 8, 4.413664e+02, 2.553271e-33, 3.756752e+01, -1.061569e-15, -1.287674e+02, 3.097096e-16
197, 1, 4.416935e+02, 2.555159e-33, 3.688616e+01, -1.062355e-15, -1.276416e+02, 3.070016e-16
197, 2, 4.416935e+02, 2.555159e-33, 3.688616e+01, -1.062355e-15, -1.276416e+02, 3.070016e-16
197, 3, 4.416935e+02, 2.555159e-33, 3.688616e+01, -1.062355e-15, -1.276416e+02, 3.070016e-16
197, 4, 4.416935e+02, 2.555159e-33, 3.688616e+01, -1.062355e-15, -1.276416e+02, 3.070016e-16
197, 5, 4.416935e+02, 2.555159e-33, 3.688616e+01, -1.062355e-15, -1.276416e+02, 3.070016e-16
197, 6, 4.416935e+02, 2.555159e-33, 3.688616e+01, -1.062355e-15, -1.276416e+02, 3.070016e-16
197, 7, 4.416935e+02, 2.555159e-33, 3.688616e+01, -1.062355e-15, -1.276416e+02, 3.070016e-16
197, 8, 4.416935e+02, 2.555159e-33, 3.688616e+01, -1.062355e-15, -1.276416e+02, 3.070016e-16
198, 1, 4.420169e+02, 2.556969e-33, 3.621067e+01, -1.063120e-15, -1.265137e+02, 3.042853e-16
198, 2, 4.420169e+02, 2.556969e-33, 3.621067e+01, -1.063120e-15, -1.265137e+02, 3.042853e-16
198, 3, 4.420169e+02, 2.556969e-33, 3.621067e+01, -1.063120e-15, -1.265137e+02, 3.042853e-16
198, 4, 4.420169e+02, 2.556969e-33, 3.621067e+01, -1.063120e-15, -1.265137e+02, 3.042853e-16
198, 5, 4.420169e+02, 2.556969e-33, 3.621067e+01, -1.063120e-15, -1.265137e+02, 3.042853e-16
198, 6, 4.420169e+02, 2.556969e-33, 3.621067e+01, -1.063120e-15, -1.265137e+02, 3.042853e-16
198, 7, 4.420169e+02, 2.556969e-33, 3.621067e+01, -1.063120e-15, -1.265137e+02, 3.042853e-16
198, 8, 4.420169e+02, 2.556969e-33, 3.621067e+01, -1.063120e-15, -1.265137e+02, 3.042853e-16
199, 1, 4.423388e+02, 2.558858e-33, 3.554123e+01, -1.063900e-15, -1.253845e+02, 3.015709e-16
199, 2, 4.423388e+02, 2.558858e-33, 3.554123e+01, -1.063900e-15, -1.253845e+02, 3.015709e-16
199, 3, 4.423388e+02, 2.558858e-33, 3.554123e+01, -1.063900e-15, -1.253845e+02, 3.015709e-16
199, 4, 4.423388e+02, 2.558858e-33, 3.554123e+01, -1.063900e-15, -1.253845e+02, 3.015709e-16
199, 5, 4.423388e+02, 2.558858e-33, 3.554123e+01, -1.063900e-15, -1.253845e+02, 3.015709e-16
199, 6, 4.423388e+02, 2.558858e-33, 3.554123e+01, -1.063900e-15, -1.253845e+02, 3.015709e-16
199, 7, 4.423388e+02, 2.558858e-33, 3.554123e+01, -1.063900e-15, -1.253845e+02, 3.015709e-16
199, 8, 4.423388e+02, 2.558858e-33, 3.554123e+01, -1.063900e-15, -1.253845e+02, 3.015709e-16
200, 1, 4.426591e+02, 2.560668e-33, 3.487787e+01, -1.064661e-15, -1.242538e+02, 2.988488e-16
200, 2, 4.426591e+02, 2.560668e-33, 3.487787e+01, -1.064661e-15, -1.242538e+02, 2.988488e-16
200, 3, 4.426591e+02, 2.560668e-33, 3.487787e+01, -1.064661e-15, -1.242538e+02, 2.988488e-16
200, 4, 4.426591e+02, 2.560668e-33, 3.487787e+01, -1.064661e-15, -1.242538e+02, 2.988488e-16
200, 5, 4.426591e+02, 2.560668e-33, 3.487787e+01, -1.064661e-15, -1.242538e+02, 2.988488e-16
200, 6, 4.426591e+02, 2.560668e-33, 3.487787e+01, -1.064661e-15, -1.242538e+02, 2.988488e-16
200, 7, 4.426591e+02, 2.560668e-33, 3.487787e+01, -1.064661e-15, -1.242538e+02, 2.988488e-16
200, 8, 4.426591e+02, 2.560668e-33, 3.487787e+01, -1.064661e-15, -1.242538e+02, 2.988488e-16
201, 1, 4.437217e+02, 2.566854e-33, 3.267171e+01, -1.067225e-15, -1.204041e+02, 2.895919e-16
201, 2, 4.437217e+02, 2.566854e-33, 3.267171e+01, -1.067225e-15, -1.204041e+02, 2.895919e-16
201, 3, 4.437217e+02, 2.566854e-33, 3.267171e+01, -1.067225e-15, -1.204041e+02, 2.895919e-16
201, 4, 4.437217e+02, 2.566854e-33, 3.267171e+01, -1.067225e-15, -1.204041e+02, 2.895919e-16
201, 5, 4.437217e+02, 2.566854e-33, 3.267171e+01, -1.067225e-15, -1.204041e+02, 2.895919e-16
201, 6, 4.437217e+02, 2.566854e-33, 3.267171e+01, -1.067225e-15, -1.204041e+02, 2.895919e-16
201, 7, 4.437217e+02, 2.566854e-33, 3.267171e+01, -1.067225e-15, -1.204041e+02, 2.895919e-16
201, 8, 4.437217e+02, 2.566854e-33, 3.267171e+01, -1.067225e-15, -1.204041e+02, 2.895919e-16
202, 1, 4.440271e+02, 2.568613e-33, 3.203448e+01, -1.067958e-15, -1.192651e+02, 2.868522e-16
202, 2, 4.440271e+02, 2.568613e-33, 3.203448e+01, -1.067958e-15, -1.192651e+02, 2.868522e-16
202, 3, 4.440271e+02, 2.568613e-33, 3.203448e+01, -1.067958e-15, -1.192651e+02, 2.868522e-16
202, 4, 4.440271e+02, 2.568613e-33, 3.203448e+01, -1.067958e-15, -1.192651e+02, 2.868522e-16
202, 5, 4.440271e+02, 2.568613e-33, 3.203448e+01, -1.067958e-15, -1.192651e+02, 2.868522e-16
202, 6, 4.440271e+02, 2.568613e-33, 3.203448e+01, -1.067958e-15, -1.192651e+02, 2.868522e-16
202, 7, 4.440271e+02, 2.568613e-33, 3.203448e+01, -1.067958e-15, -1.192651e+02, 2.868522e-16
202, 8, 4.440271e+02, 2.568613e-33, 3.203448e+01, -1.067958e-15, -1.192651e+02, 2.868522e-16
203, 1, 4.443329e+02, 2.570391e-33, 3.140351e+01, -1.068695e-15, -1.181254e+02, 2.841114e-16
203, 2, 4.443329e+02, 2.570391e-33, 3.140351e+01, -1.068695e-15, -1.181254e+02, 2.841114e-16
203, 3, 4.443329e+02, 2.570391e-33, 3.140351e+01, -1.068695e-15, -1.181254e+02, 2.841114e-16
203, 4, 4.443329e+02, 2.570391e-33, 3.140351e+01, -1.068695e-15, -1.181254e+02, 2.841114e-16
203, 5, 4.443329e+02, 2.570391e-33, 3.140351e+01, -1.068695e-15, -1.181254e+02, 2.841114e-16
203, 6, 4.443329e+02, 2.570391e-33, 3.140351e+01, -1.068695e-15, -1.181254e+02, 2.841114e-16
203, 7, 4.443329e+02, 2.570391e-33, 3.140351e+01, -1.068695e-15, -1.181254e+02, 2.841114e-16
203, 8, 4.443329e+02, 2.570391e-33, 3.140351e+01, -1.068695e-15, -1.181254e+02, 2.841114e-16
204, 1, 4.446350e+02, 2.572076e-33, 3.077850e+01, -1.069409e-15, -1.169838e+02, 2.813621e-16
204, 2, 4.446350e+02, 2.572076e-33, 3.077850e+01, -1.069409e-15, -1.169838e+02, 2.813621e-16
204, 3, 4.446350e+02, 2.572076e-33, 3.077850e+01, -1.069409e-15, -1.169838e+02, 2.813621e-16
204, 4, 4.446350e+02, 2.572076e-33, 3.077850e+01, -1.069409e-15, -1.169838e+02, 2.813621e-16
204, 5, 4.446350e+02, 2.572076e-33, 3.077850e+01, -1.069409e-15, -1.169838e+02, 2.813621e-16
204, 6, 4.446350e+02, 2.572076e-33, 3.077850e+01, -1.069409e-15, -1.169838e+02, 2.813621e-16
204, 7, 4.446350e+02, 2.572076e-33, 3.077850e+01, -1.069409e-15, -1.169838e+02, 2.813621e-16
204, 8, 4.446350e+02, 2.572076e-33, 3.077850e+01, -1.069409e-15, -1.169838e+02, 2.813621e-16
205, 1, 4.449334e+02, 2.573899e-33, 3.015948e+01, -1.070147e-15, -1.158402e+02, 2.786170e-16
205, 2, 4.449334e+02, 2.573899e-33, 3.015948e+01, -1.070147e-15, -1.158402e+02, 2.786170e-16
205, 3, 4.449334e+02, 2.573899e-33, 3.015948e+01, -1.070147e-15, -1.158402e+02, 2.786170e-16
205, 4, 4.449334e+02, 2.573899e-33, 3.015948e+01, -1.070147e-15, -1.158402e+02, 2.786170e-16
205, 5, 4.449334e+02, 2.573899e-33, 3.015948e+01, -1.070147e-15, -1.158402e+02, 2.786170e-16
205, 6, 4.449334e+02, 2.573899e-33, 3.015948e+01, -1.070147e-15, -1.158402e+02, 2.786170e-16
205, 7, 4.449334e+02, 2.573899e-33, 3.015948e+01, -1.070147e-15, -1.158402e+02, 2.786170e-16
205, 8, 4.449334e+02, 2.573899e-33, 3.015948e+01, -1.070147e-15, -1.158402e+02, 2.786170e-16
206, 1, 4.452301e+02, 2.575619e-33, 2.954658e+01, -1.070861e-15, -1.146954e+02, 2.758636e-16
206, 2, 4.452301e+02, 2.575619e-33, 2.954658e+01, -1.070861e-15, -1.146954e+02, 2.758636e-16
206, 3, 4.452301e+02, 2.575619e-33, 2.954658e+01, -1.070861e-15, -1.146954e+02, 2.758636e-16
206, 4, 4.452301e+02, 2.575619e-33, 2.954658e+01, -1.070861e-15, -1.146954e+02, 2.758636e-16
206, 5, 4.452301e+02, 2.575619e-33, 2.954658e+01, -1.070861e-15, -1.146954e+02, 2.758636e-16
206, 6, 4.452301e+02, 2.575619e-33, 2.954658e+01, -1.070861e-15, -1.146954e+02, 2.758636e-16
206, 7, 4.452301e+02, 2.575619e-33, 2.954658e+01, -1.070861e-15, -1.146954e+02, 2.758636e-16
206, 8, 4.452301e+02, 2.575619e-33, 2.954658e+01, -1.070861e-15, -1.146954e+02, 2.758636e-16
207, 1, 4.454375e+02, 2.558799e-33, 2.912169e+01, -1.067607e-15, -1.138942e+02, 2.729772e-16
207, 2, 4.454375e+02, 2.558799e-33, 2.912169e+01, -1.067607e-15, -1.138942e+02, 2.729772e-16
207, 3, 4.454375e+02, 2.558799e-33, 2.912169e+01, -1.067607e-15, -1.138942e+02, 2.729772e-16
207, 4, 4.454375e+02, 2.558799e-33, 2.912169e+01, -1.067607e-15, -1.138942e+02, 2.729772e-16
207, 5, 4.454375e+02, 2.558799e-33, 2.912169e+01, -1.067607e-15, -1.138942e+02, 2.729772e-16
207, 6, 4.454375e+02, 2.558799e-33, 2.912169e+01, -1.067607e-15, -1.138942e+02, 2.729772e-16
207, 7, 4.454375e+02, 2.558799e-33, 2.912169e+01, -1.067607e-15, -1.138942e+02, 2.729772e-16
207, 8, 4.454375e+02, 2.558799e-33, 2.912169e+01, -1.067607e-15, -1.138942e+02, 2.729772e-16
208, 1, 4.456016e+02, 2.585164e-33, 2.878046e+01, -1.073291e-15, -1.132458e+02, 2.727677e-16
208, 2, 4.456016e+02, 2.585164e-33, 2.878046e+01, -1.073291e-15, -1.132458e+02, 2.727677e-16
208, 3, 4.456016e+02, 2.585164e-33, 2.878046e+01, -1.073291e-15, -1.132458e+02, 2.727677e-16
208, 4, 4.456016e+02, 2.585164e-33, 2.878046e+01, -1.073291e-15, -1.132458e+02, 2.727677e-16
208, 5, 4.456016e+02, 2.585164e-33, 2.878046e+01, -1.073291e-15, -1.132458e+02, 2.727677e-16
208, 6, 4.456016e+02, 2.585164e-33, 2.878046e+01, -1.073291e-15, -1.132458e+02, 2.727677e-16
208, 7, 4.456016e+02, 2.585164e-33, 2.878046e+01, -1.073291e-15, -1.132458e+02, 2.727677e-16
208, 8, 4.456016e+02, 2.585164e-33, 2.878046e+01, -1.073291e-15, -1.132458e+02, 2.727677e-16
209, 1, 4.458483e+02, 2.579284e-33, 2.827146e+01, -1.072366e-15, -1.122710e+02, 2.700372e-16
209, 2, 4.458483e+02, 2.579284e-33, 2.827146e+01, -1.072366e-15, -1.122710e+02, 2.700372e-16
209, 3, 4.458483e+02, 2.579284e-33, 2.827146e+01, -1.072366e-15, -1.122710e+02, 2.700372e-16
209, 4, 4.458483e+02, 2.579284e-33, 2.827146e+01, -1.072366e-15, -1.122710e+02, 2.700372e-16
209, 5, 4.458483e+02, 2.579284e-33, 2.827146e+01, -1.072366e-15, -1.122710e+02, 2.700372e-16
209, 6, 4.458483e+02, 2.579284e-33, 2.827146e+01, -1.072366e-15, -1.122710e+02, 2.700372e-16
209, 7, 4.458483e+02, 2.579284e-33, 2.827146e+01, -1.072366e-15, -1.122710e+02, 2.700372e-16
209, 8, 4.458483e+02, 2.579284e-33, 2.827146e+01, -1.072366e-15, -1.122710e+02, 2.700372e-16
210, 1, 4.461352e+02, 2.581000e-33, 2.767739e+01, -1.073068e-15, -1.111209e+02, 2.672740e-16
210, 2, 4.461352e+02, 2.581000e-33, 2.767739e+01, -1.073068e-15, -1.111209e+02, 2.672740e-16
210, 3, 4.461352e+02, 2.581000e-33, 2.767739e+01, -1.073068e-15, -1.111209e+02, 2.672740e-16
210, 4, 4.461352e+02, 2.581000e-33, 2.767739e+01, -1.073068e-15, -1.111209e+02, 2.672740e-16
210, 5, 4.461352e+02, 2.581000e-33, 2.767739e+01, -1.073068e-15, -1.111209e+02, 2.672740e-16
210, 6, 4.461352e+02, 2.581000e-33, 2.767739e+01, -1.073068e-15, -1.111209e+02, 2.672740e-16
210, 7, 4.461352e+02, 2.581000e-33, 2.767739e+01, -1.073068e-15, -1.111209e+02, 2.672740e-16
210, 8, 4.461352e+02, 2.581000e-33, 2.767739e+01, -1.073068e-15, -1.111209e+02, 2.672740e-16
211, 1, 4.464203e+02, 2.582652e-33, 2.708950e+01, -1.073754e-15, -1.099696e+02, 2.645047e-16
211, 2, 4.464203e+02, 2.582652e-33, 2.708950e+01, -1.073754e-15, -1.099696e+02, 2.645047e-16
211, 3, 4.464203e+02, 2.582652e-33, 2.708950e+01, -1.073754e-15, -1.099696e+02, 2.645047e-16
211, 4, 4.464203e+02, 2.582652e-33, 2.708950e+01, -1.073754e-15, -1.099696e+02, 2.645047e-16
211, 5, 4.464203e+02, 2.582652e-33, 2.708950e+01, -1.073754e-15, -1.099696e+02, 2.645047e-16
211, 6, 4.464203e+02, 2.582652e-33, 2.708950e+01, -1.073754e-15, -1.099696e+02, 2.645047e-16
211, 7, 4.464203e+02, 2.582652e-33, 2.708950e+01, -1.073754e-15, -1.099696e+02, 2.645047e-16
211, 8, 4.464203e+02, 2.582652e-33, 2.708950e+01, -1.073754e-15, -1.099696e+02, 2.645047e-16
212, 1, 4.467039e+02, 2.584349e-33, 2.650777e+01, -1.074448e-15, -1.088169e+02, 2.617352e-16
212, 2, 4.467039e+02, 2.584349e-33, 2.650777e+01, -1.074448e-15, -1.088169e+02, 2.617352e-16
212, 3, 4.467039e+02, 2.584349e-33, 2.650777e+01, -1.074448e-15, -1.088169e+02, 2.617352e-16
212, 4, 4.467039e+02, 2.584349e-33, 2.650777e+01, -1.074448e-15, -1.088169e+02, 2.617352e-16
212, 5, 4.467039e+02, 2.584349e-33, 2.650777e+01, -1.074448e-15, -1.088169e+02, 2.617352e-16
212, 6, 4.467039e+02, 2.584349e-33, 2.650777e+01, -1.074448e-15, -1.088169e+02, 2.617352e-16
212, 7, 4.467039e+02, 2.584349e-33, 2.650777e+01, -1.074448e-15, -1.088169e+02, 2.617352e-16
212, 8, 4.467039e+02, 2.584349e-33, 2.650777e+01, -1.074448e-15, -1.088169e+02, 2.617352e-16
213, 1, 4.469836e+02, 2.586029e-33, 2.593209e+01, -1.075134e-15, -1.076625e+02, 2.589616e-16
213, 2, 4.469836e+02, 2.586029e-33, 2.593209e+01, -1.075134e-15, -1.076625e+02, 2.589616e-16
213, 3, 4.469836e+02, 2.586029e-33, 2.593209e+01, -1.075134e-15, -1.076625e+02, 2.589616e-16
213, 4, 4.469836e+02, 2.586029e-33, 2.593209e+01, -1.075134e-15, -1.076625e+02, 2.589616e-16
213, 5, 4.469836e+02, 2.586029e-33, 2.593209e+01, -1.075134e-15, -1.076625e+02, 2.589616e-16
213, 6, 4.469836e+02, 2.586029e-33, 2.593209e+01, -1.075134e-15, -1.076625e+02, 2.589616e-16
213, 7, 4.469836e+02, 2.586029e-33, 2.593209e+01, -1.075134e-15, -1.076625e+02, 2.589616e-16
213, 8, 4.469836e+02, 2.586029e-33, 2.593209e+01, -1.075134e-15, -1.076625e+02, 2.589616e-16
214, 1, 4.472180e+02, 2.595666e-33, 2.544879e+01, -1.077417e-15, -1.066825e+02, 2.570147e-16
214, 2, 4.472180e+02, 2.595666e-33, 2.544879e+01, -1.077417e-15, -1.066825e+02, 2.570147e-16
214, 3, 4.472180e+02, 2.595666e-33, 2.544879e+01, -1.077417e-15, -1.066825e+02, 2.570147e-16
214, 4, 4.472180e+02, 2.595666e-33, 2.544879e+01, -1.077417e-15, -1.066825e+02, 2.570147e-16
214, 5, 4.472180e+02, 2.595666e-33, 2.544879e+01, -1.077417e-15, -1.066825e+02, 2.570147e-16
214, 6, 4.472180e+02, 2.595666e-33, 2.544879e+01, -1.077417e-15, -1.066825e+02, 2.570147e-16
214, 7, 4.472180e+02, 2.595666e-33, 2.544879e+01, -1.077417e-15, -1.066825e+02, 2.570147e-16
214, 8, 4.472180e+02, 2.595666e-33, 2.544879e+01, -1.077417e-15, -1.066825e+02, 2.570147e-16
215, 1, 4.473754e+02, 2.567245e-33, 2.512542e+01, -1.071691e-15, -1.060212e+02, 2.539746e-16
215, 2, 4.473754e+02, 2.567245e-33, 2.512542e+01, -1.071691e-15, -1.060212e+02, 2.539746e-16
215, 3, 4.473754e+02, 2.567245e-33, 2.512542e+01, -1.071691e-15, -1.060212e+02, 2.539746e-16
215, 4, 4.473754e+02, 2.567245e-33, 2.512542e+01, -1.071691e-15, -1.060212e+02, 2.539746e-16
215, 5, 4.473754e+02, 2.567245e-33, 2.512542e+01, -1.071691e-15, -1.060212e+02, 2.539746e-16
215, 6, 4.473754e+02, 2.567245e-33, 2.512542e+01, -1.071691e-15, -1.060212e+02, 2.539746e-16
215, 7, 4.473754e+02, 2.567245e-33, 2.512542e+01, -1.071691e-15, -1.060212e+02, 2.539746e-16
215, 8, 4.473754e+02, 2.567245e-33, 2.512542e+01, -1.071691e-15, -1.060212e+02, 2.539746e-16
216, 1, 4.475657e+02, 2.589595e-33, 2.473554e+01, -1.076575e-15, -1.052178e+02, 2.530910e-16
216, 2, 4.475657e+02, 2.589595e-33, 2.473554e+01, -1.076575e-15, -1.052178e+02, 2.530910e-16
216, 3, 4.475657e+02, 2.589595e-33, 2.473554e+01, -1.076575e-15, -1.052178e+02, 2.530910e-16
216, 4, 4.475657e+02, 2.589595e-33, 2.473554e+01, -1.076575e-15, -1.052178e+02, 2.530910e-16
216, 5, 4.475657e+02, 2.589595e-33, 2.473554e+01, -1.076575e-15, -1.052178e+02, 2.530910e-16
216, 6, 4.475657e+02, 2.589595e-33, 2.473554e+01, -1.076575e-15, -1.052178e+02, 2.530910e-16
216, 7, 4.475657e+02, 2.589595e-33, 2.473554e+01, -1.076575e-15, -1.052178e+02, 2.530910e-16
216, 8, 4.475657e+02, 2.589595e-33, 2.473554e+01, -1.076575e-15, -1.052178e+02, 2.530910e-16
217, 1, 4.478354e+02, 2.591117e-33, 2.417887e+01, -1.077216e-15, -1.040584e+02, 2.503004e-16
217, 2, 4.478354e+02, 2.591117e-33, 2.417887e+01, -1.077216e-15, -1.040584e+02, 2.503004e-16
217, 3, 4.478354e+02, 2.591117e-33, 2.417887e+01, -1.077216e-15, -1.040584e+02, 2.503004e-16
217, 4, 4.478354e+02, 2.591117e-33, 2.417887e+01, -1.077216e-15, -1.040584e+02, 2.503004e-16
217, 5, 4.478354e+02, 2.591117e-33, 2.417887e+01, -1.077216e-15, -1.040584e+02, 2.503004e-16
217, 6, 4.478354e+02, 2.591117e-33, 2.417887e+01, -1.077216e-15, -1.040584e+02, 2.503004e-16
217, 7, 4.478354e+02, 2.591117e-33, 2.417887e+01, -1.077216e-15, -1.040584e+02, 2.503004e-16
217, 8, 4.478354e+02, 2.591117e-33, 2.417887e+01, -1.077216e-15, -1.040584e+02, 2.503004e-16
218, 1, 4.481054e+02, 2.592818e-33, 2.362852e+01, -1.077894e-15, -1.028983e+02, 2.475166e-16
218, 2, 4.481054e+02, 2.592818e-33, 2.362852e+01, -1.077894e-15, -1.028983e+02, 2.475166e-16
218, 3, 4.481054e+02, 2.592818e-33, 2.362852e+01, -1.077894e-15, -1.028983e+02, 2.475166e-16
218, 4, 4.481054e+02, 2.592818e-33, 2.362852e+01, -1.077894e-15, -1.028983e+02, 2.475166e-16
218, 5, 4.481054e+02, 2.592818e-33, 2.362852e+01, -1.077894e-15, -1.028983e+02, 2.475166e-16
218, 6, 4.481054e+02, 2.592818e-33, 2.362852e+01, -1.077894e-15, -1.028983e+02, 2.475166e-16
218, 7, 4.481054e+02, 2.592818e-33, 2.362852e+01, -1.077894e-15, -1.028983e+02, 2.475166e-16
218, 8, 4.481054e+02, 2.592818e-33, 2.362852e+01, -1.077894e-15, -1.028983e+02, 2.475166e-16
219, 1, 4.483695e+02, 2.594339e-33, 2.308416e+01, -1.078528e-15, -1.017361e+02, 2.447206e-16
219, 2, 4.483695e+02, 2.594339e-33, 2.308416e+01, -1.078528e-15, -1.017361e+02, 2.447206e-16
219, 3, 4.483695e+02, 2.594339e-33, 2.308416e+01, -1.078528e-15, -1.017361e+02, 2.447206e-16
219, 4, 4.483695e+02, 2.594339e-33, 2.308416e+01, -1.078528e-15, -1.017361e+02, 2.447206e-16
219, 5, 4.483695e+02, 2.594339e-33, 2.308416e+01, -1.078528e-15, -1.017361e+02, 2.447206e-16
219, 6, 4.483695e+02, 2.594339e-33, 2.308416e+01, -1.078528e-15, -1.017361e+02, 2.447206e-16
219, 7, 4.483695e+02, 2.594339e-33, 2.308416e+01, -1.078528e-15, -1.017361e+02, 2.447206e-16
219, 8, 4.483695e+02, 2.594339e-33, 2.308416e+01, -1.078528e-15, -1.017361e+02, 2.447206e-16
220, 1, 4.486318e+02, 2.595987e-33, 2.254602e+01, -1.079186e-15, -1.005727e+02, 2.419280e-16
220, 2, 4.486318e+02, 2.595987e-33, 2.254602e+01, -1.079186e-15, -1.005727e+02, 2.419280e-16
220, 3, 4.486318e+02, 2.595987e-33, 2.254602e+01, -1.079186e-15, -1.005727e+02, 2.419280e-16
220, 4, 4.486318e+02, 2.595987e-33, 2.254602e+01, -1.079186e-15, -1.005727e+02, 2.419280e-16
220, 5, 4.486318e+02, 2.595987e-33, 2.254602e+01, -1.079186e-15, -1.005727e+02, 2.419280e-16
220, 6, 4.486318e+02, 2.595987e-33, 2.254602e+01, -1.079186e-15, -1.005727e+02, 2.419280e-16
220, 7, 4.486318e+02, 2.595987e-33, 2.254602e+01, -1.079186e-15, -1.005727e+02, 2.419280e-16
220, 8, 4.486318e+02, 2.595987e-33, 2.254602e+01, -1.079186e-15, -1.005727e+02, 2.419280e-16
221, 1, 4.488903e+02, 2.597490e-33, 2.201401e+01, -1.079809e-15, -9.940762e+01, 2.391258e-16
221, 2, 4.488903e+02, 2.597490e-33, 2.201401e+01, -1.079809e-15, -9.940762e+01, 2.391258e-16
221, 3, 4.488903e+02, 2.597490e-33, 2.201401e+01, -1.079809e-15, -9.940762e+01, 2.391258e-16
221, 4, 4.488903e+02, 2.597490e-33, 2.201401e+01, -1.079809e-15, -9.940762e+01, 2.391258e-16
221, 5, 4.488903e+02, 2.597490e-33, 2.201401e+01, -1.079809e-15, -9.940762e+01, 2.391258e-16
221, 6, 4.488903e+02, 2.597490e-33, 2.201401e+01, -1.079809e-15, -9.940762e+01, 2.391258e-16
221, 7, 4.488903e+02, 2.597490e-33, 2.201401e+01, -1.079809e-15, -9.940762e+01, 2.391258e-16
221, 8, 4.488903e+02, 2.597490e-33, 2.201401e+01, -1.079809e-15, -9.940762e+01, 2.391258e-16
222, 1, 4.497582e+02, 2.602899e-33, 2.024022e+01, -1.081977e-15, -9.541071e+01, 2.295283e-16
222, 2, 4.497582e+02, 2.602899e-33, 2.024022e+01, -1.081977e-15, -9.541071e+01, 2.295283e-16
222, 3, 4.497582e+02, 2.602899e-33, 2.024022e+01, -1.081977e-15, -9.541071e+01, 2.295283e-16
222, 4, 4.497582e+02, 2.602899e-33, 2.024022e+01, -1.081977e-15, -9.541071e+01, 2.295283e-16
222, 5, 4.497582e+02, 2.602899e-33, 2.024022e+01, -1.081977e-15, -9.541071e+01, 2.295283e-16
222, 6, 4.497582e+02, 2.602899e-33, 2.024022e+01, -1.081977e-15, -9.541071e+01, 2.295283e-16
222, 7, 4.497582e+02, 2.602899e-33, 2.024022e+01, -1.081977e-15, -9.541071e+01, 2.295283e-16
222, 8, 4.497582e+02, 2.602899e-33, 2.024022e+01, -1.081977e-15, -9.541071e+01, 2.295283e-16
223, 1, 4.500049e+02, 2.604438e-33, 1.973563e+01, -1.082594e-15, -9.423976e+01, 2.267162e-16
223, 2, 4.500049e+02, 2.604438e-33, 1.973563e+01, -1.082594e-15, -9.423976e+01, 2.267162e-16
223, 3, 4.500049e+02, 2.604438e-33, 1.973563e+01, -1.082594e-15, -9.423976e+01, 2.267162e-16
223, 4, 4.500049e+02, 2.604438e-33, 1.973563e+01, -1.082594e-15, -9.423976e+01, 2.267162e-16
223, 5, 4.500049e+02, 2.604438e-33, 1.973563e+01, -1.082594e-15, -9.423976e+01, 2.267162e-16
223, 6, 4.500049e+02, 2.604438e-33, 1.973563e+01, -1.082594e-15, -9.423976e+01, 2.267162e-16
223, 7, 4.500049e+02, 2.604438e-33, 1.973563e+01, -1.082594e-15, -9.423976e+01, 2.267162e-16
223, 8, 4.500049e+02, 2.604438e-33, 1.973563e+01, -1.082594e-15, -9.423976e+01, 2.267162e-16
224, 1, 4.502499e+02, 2.605993e-33, 1.923732e+01, -1.083212e-15, -9.306771e+01, 2.239025e-16
224, 2, 4.502499e+02, 2.605993e-33, 1.923732e+01, -1.083212e-15, -9.306771e+01, 2.239025e-16
224, 3, 4.502499e+02, 2.605993e-33, 1.923732e+01, -1.083212e-15, -9.306771e+01, 2.239025e-16
224, 4, 4.502499e+02, 2.605993e-33, 1.923732e+01, -1.083212e-15, -9.306771e+01, 2.239025e-16
224, 5, 4.502499e+02, 2.605993e-33, 1.923732e+01, -1.083212e-15, -9.306771e+01, 2.239025e-16
224, 6, 4.502499e+02, 2.605993e-33, 1.923732e+01, -1.083212e-15, -9.306771e+01, 2.239025e-16
224, 7, 4.502499e+02, 2.605993e-33, 1.923732e+01, -1.083212e-15, -9.306771e+01, 2.239025e-16
224, 8, 4.502499e+02, 2.605993e-33, 1.923732e+01, -1.083212e-15, -9.306771e+01, 2.239025e-16
225, 1, 4.504909e+02, 2.607373e-33, 1.874517e+01, -1.083789e-15, -9.189412e+01, 2.210784e-16
225, 2, 4.504909e+02, 2.607373e-33, 1.874517e+01, -1.083789e-15, -9.189412e+01, 2.210784e-16
225, 3, 4.504909e+02, 2.607373e-33, 1.874517e+01, -1.083789e-15, -9.189412e+01, 2.210784e-16
225, 4, 4.504909e+02, 2.607373e-33, 1.874517e+01, -1.083789e-15, -9.189412e+01, 2.210784e-16
225, 5, 4.504909e+02, 2.607373e-33, 1.874517e+01, -1.083789e-15, -9.189412e+01, 2.210784e-16
225, 6, 4.504909e+02, 2.607373e-33, 1.874517e+01, -1.083789e-15, -9.189412e+01, 2.210784e-16
225, 7, 4.504909e+02, 2.607373e-33, 1.874517e+01, -1.083789e-15, -9.189412e+01, 2.210784e-16
225, 8, 4.504909e+02, 2.607373e-33, 1.874517e+01, -1.083789e-15, -9.189412e+01, 2.210784e-16
226, 1, 4.507279e+02, 2.609024e-33, 1.825922e+01, -1.084417e-15, -9.071902e+01, 2.182630e-16
226, 2, 4.507279e+02, 2.609024e-33, 1.825922e+01, -1.084417e-15, -9.071902e+01, 2.182630e-16
226, 3, 4.507279e+02, 2.609024e-33, 1.825922e+01, -1.084417e-15, -9.071902e+01, 2.182630e-16
226, 4, 4.507279e+02, 2.609024e-33, 1.825922e+01, -1.084417e-15, -9.071902e+01, 2.182630e-16
226, 5, 4.507279e+02, 2.609024e-33, 1.825922e+01, -1.084417e-15, -9.071902e+01, 2.182630e-16
226, 6, 4.507279e+02, 2.609024e-33, 1.825922e+01, -1.084417e-15, -9.071902e+01, 2.182630e-16
226, 7, 4.507279e+02, 2.609024e-33, 1.825922e+01, -1.084417e-15, -9.071902e+01, 2.182630e-16
226, 8, 4.507279e+02, 2.609024e-33, 1.825922e+01, -1.084417e-15, -9.071902e+01, 2.182630e-16
227, 1, 4.509632e+02, 2.610466e-33, 1.777955e+01, -1.085000e-15, -8.954285e+01, 2.154365e-16
227, 2, 4.509632e+02, 2.610466e-33, 1.777955e+01, -1.085000e-15, -8.954285e+01, 2.154365e-16
227, 3, 4.509632e+02, 2.610466e-33, 1.777955e+01, -1.085000e-15, -8.954285e+01, 2.154365e-16
227, 4, 4.509632e+02, 2.610466e-33, 1.777955e+01, -1.085000e-15, -8.954285e+01, 2.154365e-16
227, 5, 4.509632e+02, 2.610466e-33, 1.777955e+01, -1.085000e-15, -8.954285e+01, 2.154365e-16
227, 6, 4.509632e+02, 2.610466e-33, 1.777955e+01, -1.085000e-15, -8.954285e+01, 2.154365e-16
227, 7, 4.509632e+02, 2.610466e-33, 1.777955e+01, -1.085000e-15, -8.954285e+01, 2.154365e-16
227, 8, 4.509632e+02, 2.610466e-33, 1.777955e+01, -1.085000e-15, -8.954285e+01, 2.154365e-16
228, 1, 4.511269e+02, 2.583169e-33, 1.744764e+01, -1.079508e-15, -8.871922e+01, 2.122974e-16
228, 2, 4.511269e+02, 2.583169e-33, 1.744764e+01, -1.079508e-15, -8.871922e+01, 2.122974e-16
228, 3, 4.511269e+02, 2.583169e-33, 1.744764e+01, -1.079508e-15, -8.871922e+01, 2.122974e-16
228, 4, 4.511269e+02, 2.583169e-33, 1.744764e+01, -1.079508e-15, -8.871922e+01, 2.122974e-16
228, 5, 4.511269e+02, 2.583169e-33, 1.744764e+01, -1.079508e-15, -8.871922e+01, 2.122974e-16
228, 6, 4.511269e+02, 2.583169e-33, 1.744764e+01, -1.079508e-15, -8.871922e+01, 2.122974e-16
228, 7, 4.511269e+02, 2.583169e-33, 1.744764e+01, -1.079508e-15, -8.871922e+01, 2.122974e-16
228, 8, 4.511269e+02, 2.583169e-33, 1.744764e+01, -1.079508e-15, -8.871922e+01, 2.122974e-16
229, 1, 4.512562e+02, 2.623389e-33, 1.718157e+01, -1.088035e-15, -8.805277e+01, 2.123062e-16
229, 2, 4.512562e+02, 2.623389e-33, 1.718157e+01, -1.088035e-15, -8.805277e+01, 2.123062e-16
229, 3, 4.512562e+02, 2.623389e-33, 1.718157e+01, -1.088035e-15, -8.805277e+01, 2.123062e-16
229, 4, 4.512562e+02, 2.623389e-33, 1.718157e+01, -1.088035e-15, -8.805277e+01, 2.123062e-16
229, 5, 4.512562e+02, 2.623389e-33, 1.718157e+01, -1.088035e-15, -8.805277e+01, 2.123062e-16
229, 6, 4.512562e+02, 2.623389e-33, 1.718157e+01, -1.088035e-15, -8.805277e+01, 2.123062e-16
229, 7, 4.512562e+02, 2.623389e-33, 1.718157e+01, -1.088035e-15, -8.805277e+01, 2.123062e-16
229, 8, 4.512562e+02, 2.623389e-33, 1.718157e+01, -1.088035e-15, -8.805277e+01, 2.123062e-16
230, 1, 4.514501e+02, 2.613497e-33, 1.678587e+01, -1.086215e-15, -8.705161e+01, 2.094512e-16
230, 2, 4.514501e+02, 2.613497e-33, 1.678587e+01, -1.086215e-15, -8.705161e+01, 2.094512e-16
230, 3, 4.514501e+02, 2.613497e-33, 1.678587e+01, -1.086215e-15, -8.705161e+01, 2.094512e-16
230, 4, 4.514501e+02, 2.613497e-33, 1.678587e+01, -1.086215e-15, -8.705161e+01, 2.094512e-16
230, 5, 4.514501e+02, 2.613497e-33, 1.678587e+01, -1.086215e-15, -8.705161e+01, 2.094512e-16
230, 6, 4.514501e+02, 2.613497e-33, 1.678587e+01, -1.086215e-15, -8.705161e+01, 2.094512e-16
230, 7, 4.514501e+02, 2.613497e-33, 1.678587e+01, -1.086215e-15, -8.705161e+01, 2.094512e-16
230, 8, 4.514501e+02, 2.613497e-33, 1.678587e+01, -1.086215e-15, -8.705161e+01, 2.094512e-16
231, 1, 4.516771e+02, 2.614868e-33, 1.632570e+01, -1.086773e-15, -8.587169e+01, 2.066145e-16
231, 2, 4.516771e+02, 2.614868e-33, 1.632570e+01, -1.086773e-15, -8.587169e+01, 2.066145e-16
231, 3, 4.516771e+02, 2.614868e-33, 1.632570e+01, -1.086773e-15, -8.587169e+01, 2.066145e-16
231, 4, 4.516771e+02, 2.614868e-33, 1.632570e+01, -1.086773e-15, -8.587169e+01, 2.066145e-16
231, 5, 4.516771e+02, 2.614868e-33, 1.632570e+01, -1.086773e-15, -8.587169e+01, 2.066145e-16
231, 6, 4.516771e+02, 2.614868e-33, 1.632570e+01, -1.086773e-15, -8.587169e+01, 2.066145e-16
231, 7, 4.516771e+02, 2.614868e-33, 1.632570e+01, -1.086773e-15, -8.587169e+01, 2.066145e-16
231, 8, 4.516771e+02, 2.614868e-33, 1.632570e+01, -1.086773e-15, -8.587169e+01, 2.066145e-16
232, 1, 4.519001e+02, 2.616223e-33, 1.587177e+01, -1.087323e-15, -8.469033e+01, 2.037746e-16
232, 2, 4.519001e+02, 2.616223e-33, 1.587177e+01, -1.087323e-15, -8.469033e+01, 2.037746e-16
232, 3, 4.519001e+02, 2.616223e-33, 1.587177e+01, -1.087323e-15, -8.469033e+01, 2.037746e-16
232, 4, 4.519001e+02, 2.616223e-33, 1.587177e+01, -1.087323e-15, -8.469033e+01, 2.037746e-16
232, 5, 4.519001e+02, 2.616223e-33, 1.587177e+01, -1.087323e-15, -8.469033e+01, 2.037746e-16
232, 6, 4.519001e+02, 2.616223e-33, 1.587177e+01, -1.087323e-15, -8.469033e+01, 2.037746e-16
232, 7, 4.519001e+02, 2.616223e-33, 1.587177e+01, -1.087323e-15, -8.469033e+01, 2.037746e-16
232, 8, 4.519001e+02, 2.616223e-33, 1.587177e+01, -1.087323e-15, -8.469033e+01, 2.037746e-16
233, 1, 4.521191e+02, 2.617673e-33, 1.542407e+01, -1.087888e-15, -8.350757e+01, 2.009357e-16
233, 2, 4.521191e+02, 2.617673e-33, 1.542407e+01, -1.087888e-15, -8.350757e+01, 2.009357e-16
233, 3, 4.521191e+02, 2.617673e-33, 1.542407e+01, -1.087888e-15, -8.350757e+01, 2.009357e-16
233, 4, 4.521191e+02, 2.617673e-33, 1.542407e+01, -1.087888e-15, -8.350757e+01, 2.009357e-16
233, 5, 4.521191e+02, 2.617673e-33, 1.542407e+01, -1.087888e-15, -8.350757e+01, 2.009357e-16
233, 6, 4.521191e+02, 2.617673e-33, 1.542407e+01, -1.087888e-15, -8.350757e+01, 2.009357e-16
233, 7, 4.521191e+02, 2.617673e-33, 1.542407e+01, -1.087888e-15, -8.350757e+01, 2.009357e-16
233, 8, 4.521191e+02, 2.617673e-33, 1.542407e+01, -1.087888e-15, -8.350757e+01, 2.009357e-16
234, 1, 4.523384e+02, 2.619090e-33, 1.498276e+01, -1.088446e-15, -8.232422e+01, 1.980939e-16
234, 2, 4.523384e+02, 2.619090e-33, 1.498276e+01, -1.088446e-15, -8.232422e+01, 1.980939e-16
234, 3, 4.523384e+02, 2.619090e-33, 1.498276e+01, -1.088446e-15, -8.232422e+01, 1.980939e-16
234, 4, 4.523384e+02, 2.619090e-33, 1.498276e+01, -1.088446e-15, -8.232422e+01, 1.980939e-16
234, 5, 4.523384e+02, 2.619090e-33, 1.498276e+01, -1.088446e-15, -8.232422e+01, 1.980939e-16
234, 6, 4.523384e+02, 2.619090e-33, 1.498276e+01, -1.088446e-15, -8.232422e+01, 1.980939e-16
234, 7, 4.523384e+02, 2.619090e-33, 1.498276e+01, -1.088446e-15, -8.232422e+01, 1.980939e-16
234, 8, 4.523384e+02, 2.619090e-33, 1.498276e+01, -1.088446e-15, -8.232422e+01, 1.980939e-16
235, 1, 4.525172e+02, 2.632292e-33, 1.461332e+01, -1.091402e-15, -8.131901e+01, 1.961289e-16
235, 2, 4.525172e+02, 2.632292e-33, 1.461332e+01, -1.091402e-15, -8.131901e+01, 1.961289e-16
235, 3, 4.525172e+02, 2.632292e-33, 1.461332e+01, -1.091402e-15, -8.131901e+01, 1.961289e-16
235, 4, 4.525172e+02, 2.632292e-33, 1.461332e+01, -1.091402e-15, -8.131901e+01, 1.961289e-16
235, 5, 4.525172e+02, 2.632292e-33, 1.461332e+01, -1.091402e-15, -8.131901e+01, 1.961289e-16
235, 6, 4.525172e+02, 2.632292e-33, 1.461332e+01, -1.091402e-15, -8.131901e+01, 1.961289e-16
235, 7, 4.525172e+02, 2.632292e-33, 1.461332e+01, -1.091402e-15, -8.131901e+01, 1.961289e-16
235, 8, 4.525172e+02, 2.632292e-33, 1.461332e+01, -1.091402e-15, -8.131901e+01, 1.961289e-16
236, 1, 4.526406e+02, 2.589519e-33, 1.436662e+01, -1.082646e-15, -8.064065e+01, 1.928798e-16
236, 2, 4.526406e+02, 2.589519e-33, 1.436662e+01, -1.082646e-15, -8.064065e+01, 1.928798e-16
236, 3, 4.526406e+02, 2.589519e-33, 1.436662e+01, -1.082646e-15, -8.064065e+01, 1.928798e-16
236, 4, 4.526406e+02, 2.589519e-33, 1.436662e+01, -1.082646e-15, -8.064065e+01, 1.928798e-16
236, 5, 4.526406e+02, 2.589519e-33, 1.436662e+01, -1.082646e-15, -8.064065e+01, 1.928798e-16
236, 6, 4.526406e+02, 2.589519e-33, 1.436662e+01, -1.082646e-15, -8.064065e+01, 1.928798e-16
236, 7, 4.526406e+02, 2.589519e-33, 1.436662e+01, -1.082646e-15, -8.064065e+01, 1.928798e-16
236, 8, 4.526406e+02, 2.589519e-33, 1.436662e+01, -1.082646e-15, -8.064065e+01, 1.928798e-16
237, 1, 4.527869e+02, 2.621993e-33, 1.407005e+01, -1.089589e-15, -7.981689e+01, 1.920718e-16
237, 2, 4.527869e+02, 2.621993e-33, 1.407005e+01, -1.089589e-15, -7.981689e+01, 1.920718e-16
237, 3, 4.527869e+02, 2.621993e-33, 1.407005e+01, -1.089589e-15, -7.981689e+01, 1.920718e-16
237, 4, 4.527869e+02, 2.621993e-33, 1.407005e+01, -1.089589e-15, -7.981689e+01, 1.920718e-16
237, 5, 4.527869e+02, 2.621993e-33, 1.407005e+01, -1.089589e-15, -7.981689e+01, 1.920718e-16
237, 6, 4.527869e+02, 2.621993e-33, 1.407005e+01, -1.089589e-15, -7.981689e+01, 1.920718e-16
237, 7, 4.527869e+02, 2.621993e-33, 1.407005e+01, -1.089589e-15, -7.981689e+01, 1.920718e-16
237, 8, 4.527869e+02, 2.621993e-33, 1.407005e+01, -1.089589e-15, -7.981689e+01, 1.920718e-16
238, 1, 4.529913e+02, 2.623292e-33, 1.364818e+01, -1.090105e-15, -7.862891e+01, 1.892172e-16
238, 2, 4.529913e+02, 2.623292e-33, 1.364818e+01, -1.090105e-15, -7.862891e+01, 1.892172e-16
238, 3, 4.529913e+02, 2.623292e-33, 1.364818e+01, -1.090105e-15, -7.862891e+01, 1.892172e-16
238, 4, 4.529913e+02, 2.623292e-33, 1.364818e+01, -1.090105e-15, -7.862891e+01, 1.892172e-16
238, 5, 4.529913e+02, 2.623292e-33, 1.364818e+01, -1.090105e-15, -7.862891e+01, 1.892172e-16
238, 6, 4.529913e+02, 2.623292e-33, 1.364818e+01, -1.090105e-15, -7.862891e+01, 1.892172e-16
238, 7, 4.529913e+02, 2.623292e-33, 1.364818e+01, -1.090105e-15, -7.862891e+01, 1.892172e-16
238, 8, 4.529913e+02, 2.623292e-33, 1.364818e+01, -1.090105e-15, -7.862891e+01, 1.892172e-16
239, 1, 4.531982e+02, 2.624665e-33, 1.323278e+01, -1.090639e-15, -7.744076e+01, 1.863642e-16
239, 2, 4.531982e+02, 2.624665e-33, 1.323278e+01, -1.090639e-15, -7.744076e+01, 1.863642e-16
239, 3, 4.531982e+02, 2.624665e-33, 1.323278e+01, -1.090639e-15, -7.744076e+01, 1.863642e-16
239, 4, 4.531982e+02, 2.624665e-33, 1.323278e+01, -1.090639e-15, -7.744076e+01, 1.863642e-16
239, 5, 4.531982e+02, 2.624665e-33, 1.323278e+01, -1.090639e-15, -7.744076e+01, 1.863642e-16
239, 6, 4.531982e+02, 2.624665e-33, 1.323278e+01, -1.090639e-15, -7.744076e+01, 1.863642e-16
239, 7, 4.531982e+02, 2.624665e-33, 1.323278e+01, -1.090639e-15, -7.744076e+01, 1.863642e-16
239, 8, 4.531982e+02, 2.624665e-33, 1.323278e+01, -1.090639e-15, -7.744076e+01, 1.863642e-16
240, 1, 4.534010e+02, 2.625850e-33, 1.282366e+01, -1.091129e-15, -7.625130e+01, 1.835021e-16
240, 2, 4.534010e+02, 2.625850e-33, 1.282366e+01, -1.091129e-15, -7.625130e+01, 1.835021e-16
240, 3, 4.534010e+02, 2.625850e-33, 1.282366e+01, -1.091129e-15, -7.625130e+01, 1.835021e-16
240, 4, 4.534010e+02, 2.625850e-33, 1.282366e+01, -1.091129e-15, -7.625130e+01, 1.835021e-16
240, 5, 4.534010e+02, 2.625850e-33, 1.282366e+01, -1.091129e-15, -7.625130e+01, 1.835021e-16
240, 6, 4.534010e+02, 2.625850e-33, 1.282366e+01, -1.091129e-15, -7.625130e+01, 1.835021e-16
240, 7, 4.534010e+02, 2.625850e-33, 1.282366e+01, -1.091129e-15, -7.625130e+01, 1.835021e-16
240, 8, 4.534010e+02, 2.625850e-33, 1.282366e+01, -1.091129e-15, -7.625130e+01, 1.835021e-16
241, 1, 4.535998e+02, 2.627243e-33, 1.242084e+01, -1.091658e-15, -7.506056e+01, 1.806448e-16
241, 2, 4.535998e+02, 2.627243e-33, 1.242084e+01, -1.091658e-15, -7.506056e+01, 1.806448e-16
241, 3, 4.535998e+02, 2.627243e-33, 1.242084e+01, -1.091658e-15, -7.506056e+01, 1.806448e-16
241, 4, 4.535998e+02, 2.627243e-33, 1.242084e+01, -1.091658e-15, -7.506056e+01, 1.806448e-16
241, 5, 4.535998e+02, 2.627243e-33, 1.242084e+01, -1.091658e-15, -7.506056e+01, 1.806448e-16
241, 6, 4.535998e+02, 2.627243e-33, 1.242084e+01, -1.091658e-15, -7.506056e+01, 1.806448e-16
241, 7, 4.535998e+02, 2.627243e-33, 1.242084e+01, -1.091658e-15, -7.506056e+01, 1.806448e-16
241, 8, 4.535998e+02, 2.627243e-33, 1.242084e+01, -1.091658e-15, -7.506056e+01, 1.806448e-16
242, 1, 4.537945e+02, 2.628514e-33, 1.202431e+01, -1.092156e-15, -7.386858e+01, 1.777810e-16
242, 2, 4.537945e+02, 2.628514e-33, 1.202431e+01, -1.092156e-15, -7.386858e+01, 1.777810e-16
242, 3, 4.537945e+02, 2.628514e-33, 1.202431e+01, -1.092156e-15, -7.386858e+01, 1.777810e-16
242, 4, 4.537945e+02, 2.628514e-33, 1.202431e+01, -1.092156e-15, -7.386858e+01, 1.777810e-16
242, 5, 4.537945e+02, 2.628514e-33, 1.202431e+01, -1.092156e-15, -7.386858e+01, 1.777810e-16
242, 6, 4.537945e+02, 2.628514e-33, 1.202431e+01, -1.092156e-15, -7.386858e+01, 1.777810e-16
242, 7, 4.537945e+02, 2.628514e-33, 1.202431e+01, -1.092156e-15, -7.386858e+01, 1.777810e-16
242, 8, 4.537945e+02, 2.628514e-33, 1.202431e+01, -1.092156e-15, -7.386858e+01, 1.777810e-16
243, 1, 4.544463e+02, 2.632699e-33, 1.070659e+01, -1.093810e-15, -6.975365e+01, 1.678905e-16
243, 2, 4.544463e+02, 2.632699e-33, 1.070659e+01, -1.093810e-15, -6.975365e+01, 1.678905e-16
243, 3, 4.544463e+02, 2.632699e-33, 1.070659e+01, -1.093810e-15, -6.975365e+01, 1.678905e-16
243, 4, 4.544463e+02, 2.632699e-33, 1.070659e+01, -1.093810e-15, -6.975365e+01, 1.678905e-16
243, 5, 4.544463e+02, 2.632699e-33, 1.070659e+01, -1.093810e-15, -6.975365e+01, 1.678905e-16
243, 6, 4.544463e+02, 2.632699e-33, 1.070659e+01, -1.093810e-15, -6.975365e+01, 1.678905e-16
243, 7, 4.544463e+02, 2.632699e-33, 1.070659e+01, -1.093810e-15, -6.975365e+01, 1.678905e-16
243, 8, 4.544463e+02, 2.632699e-33, 1.070659e+01, -1.093810e-15, -6.975365e+01, 1.678905e-16
244, 1, 4.546262e+02, 2.633922e-33, 1.033826e+01, -1.094281e-15, -6.855687e+01, 1.650157e-16
244, 2, 4.546262e+02, 2.633922e-33, 1.033826e+01, -1.094281e-15, -6.855687e+01, 1.650157e-16
244, 3, 4.546262e+02, 2.633922e-33, 1.033826e+01, -1.094281e-15, -6.855687e+01, 1.650157e-16
244, 4, 4.546262e+02, 2.633922e-33, 1.033826e+01, -1.094281e-15, -6.855687e+01, 1.650157e-16
244, 5, 4.546262e+02, 2.633922e-33, 1.033826e+01, -1.094281e-15, -6.855687e+01, 1.650157e-16
244, 6, 4.546262e+02, 2.633922e-33, 1.033826e+01, -1.094281e-15, -6.855687e+01, 1.650157e-16
244, 7, 4.546262e+02, 2.633922e-33, 1.033826e+01, -1.094281e-15, -6.855687e+01, 1.650157e-16
244, 8, 4.546262e+02, 2.633922e-33, 1.033826e+01, -1.094281e-15, -6.855687e+01, 1.650157e-16
245, 1, 4.548065e+02, 2.635121e-33, 9.976364e+00, -1.094747e-15, -6.735960e+01, 1.621386e-16
245, 2, 4.548065e+02, 2.635121e-33, 9.976364e+00, -1.094747e-15, -6.735960e+01, 1.621386e-16
245, 3, 4.548065e+02, 2.635121e-33, 9.976364e+00, -1.094747e-15, -6.735960e+01, 1.621386e-16
245, 4, 4.548065e+02, 2.635121e-33, 9.976364e+00, -1.094747e-15, -6.735960e+01, 1.621386e-16
245, 5, 4.548065e+02, 2.635121e-33, 9.976364e+00, -1.094747e-15, -6.735960e+01, 1.621386e-16
245, 6, 4.548065e+02, 2.635121e-33, 9.976364e+00, -1.094747e-15, -6.735960e+01, 1.621386e-16
245, 7, 4.548065e+02, 2.635121e-33, 9.976364e+00, -1.094747e-15, -6.735960e+01, 1.621386e-16
245, 8, 4.548065e+02, 2.635121e-33, 9.976364e+00, -1.094747e-15, -6.735960e+01, 1.621386e-16
246, 1, 4.549805e+02, 2.636246e-33, 9.620767e+00, -1.095190e-15, -6.616087e+01, 1.592567e-16
246, 2, 4.549805e+02, 2.636246e-33, 9.620767e+00, -1.095190e-15, -6.616087e+01, 1.592567e-16
246, 3, 4.549805e+02, 2.636246e-33, 9.620767e+00, -1.095190e-15, -6.616087e+01, 1.592567e-16
246, 4, 4.549805e+02, 2.636246e-33, 9.620767e+00, -1.095190e-15, -6.616087e+01, 1.592567e-16
246, 5, 4.549805e+02, 2.636246e-33, 9.620767e+00, -1.095190e-15, -6.616087e+01, 1.592567e-16
246, 6, 4.549805e+02, 2.636246e-33, 9.620767e+00, -1.095190e-15, -6.616087e+01, 1.592567e-16
246, 7, 4.549805e+02, 2.636246e-33, 9.620767e+00, -1.095190e-15, -6.616087e+01, 1.592567e-16
246, 8, 4.549805e+02, 2.636246e-33, 9.620767e+00, -1.095190e-15, -6.616087e+01, 1.592567e-16
247, 1, 4.551547e+02, 2.637400e-33, 9.271614e+00, -1.095639e-15, -6.496168e+01, 1.563744e-16
247, 2, 4.551547e+02, 2.637400e-33, 9.271614e+00, -1.095639e-15, -6.496168e+01, 1.563744e-16
247, 3, 4.551547e+02, 2.637400e-33, 9.271614e+00, -1.095639e-15, -6.496168e+01, 1.563744e-16
247, 4, 4.551547e+02, 2.637400e-33, 9.271614e+00, -1.095639e-15, -6.496168e+01, 1.563744e-16
247, 5, 4.551547e+02, 2.637400e-33, 9.271614e+00, -1.095639e-15, -6.496168e+01, 1.563744e-16
247, 6, 4.551547e+02, 2.637400e-33, 9.271614e+00, -1.095639e-15, -6.496168e+01, 1.563744e-16
247, 7, 4.551547e+02, 2.637400e-33, 9.271614e+00, -1.095639e-15, -6.496168e+01, 1.563744e-16
247, 8, 4.551547e+02, 2.637400e-33, 9.271614e+00, -1.095639e-15, -6.496168e+01, 1.563744e-16
248, 1, 4.552979e+02, 2.652931e-33, 8.980443e+00, -1.099033e-15, -6.394355e+01, 1.543518e-16
248, 2, 4.552979e+02, 2.652931e-33, 8.980443e+00, -1.099033e-15, -6.394355e+01, 1.543518e-16
248, 3, 4.552979e+02, 2.652931e-33, 8.980443e+00, -1.099033e-15, -6.394355e+01, 1.543518e-16
248, 4, 4.552979e+02, 2.652931e-33, 8.980443e+00, -1.099033e-15, -6.394355e+01, 1.543518e-16
248, 5, 4.552979e+02, 2.652931e-33, 8.980443e+00, -1.099033e-15, -6.394355e+01, 1.543518e-16
248, 6, 4.552979e+02, 2.652931e-33, 8.980443e+00, -1.099033e-15, -6.394355e+01, 1.543518e-16
248, 7, 4.552979e+02, 2.652931e-33, 8.980443e+00, -1.099033e-15, -6.394355e+01, 1.543518e-16
248, 8, 4.552979e+02, 2.652931e-33, 8.980443e+00, -1.099033e-15, -6.394355e+01, 1.543518e-16
249, 1, 4.553954e+02, 2.600955e-33, 8.786544e+00, -1.088330e-15, -6.325624e+01, 1.511734e-16
249, 2, 4.553954e+02, 2.600955e-33, 8.786544e+00, -1.088330e-15, -6.325624e+01, 1.511734e-16
249, 3, 4.553954e+02, 2.600955e-33, 8.786544e+00, -1.088330e-15, -6.325624e+01, 1.511734e-16
249, 4, 4.553954e+02, 2.600955e-33, 8.786544e+00, -1.088330e-15, -6.325624e+01, 1.511734e-16
249, 5, 4.553954e+02, 2.600955e-33, 8.786544e+00, -1.088330e-15, -6.325624e+01, 1.511734e-16
249, 6, 4.553954e+02, 2.600955e-33, 8.786544e+00, -1.088330e-15, -6.325624e+01, 1.511734e-16
249, 7, 4.553954e+02, 2.600955e-33, 8.786544e+00, -1.088330e-15, -6.325624e+01, 1.511734e-16
249, 8, 4.553954e+02, 2.600955e-33, 8.786544e+00, -1.088330e-15, -6.325624e+01, 1.511734e-16
250, 1, 4.555091e+02, 2.639750e-33, 8.553976e+00, -1.096554e-15, -6.242126e+01, 1.502676e-16
250, 2, 4.555091e+02, 2.639750e-33, 8.553976e+00, -1.096554e-15, -6.242126e+01, 1.502676e-16
250, 3, 4.555091e+02, 2.639750e-33, 8.553976e+00, -1.096554e-15, -6.242126e+01, 1.502676e-16
250, 4, 4.555091e+02, 2.639750e-33, 8.553976e+00, -1.096554e-15, -6.242126e+01, 1.502676e-16
250, 5, 4.555091e+02, 2.639750e-33, 8.553976e+00, -1.096554e-15, -6.242126e+01, 1.502676e-16
250, 6, 4.555091e+02, 2.639750e-33, 8.553976e+00, -1.096554e-15, -6.242126e+01, 1.502676e-16
250, 7, 4.555091e+02, 2.639750e-33, 8.553976e+00, -1.096554e-15, -6.242126e+01, 1.502676e-16
250, 8, 4.555091e+02, 2.639750e-33, 8.553976e+00, -1.096554e-15, -6.242126e+01, 1.502676e-16
251, 1, 4.556725e+02, 2.640851e-33, 8.224690e+00, -1.096979e-15, -6.121899e+01, 1.473777e-16
251, 2, 4.556725e+02, 2.640851e-33, 8.224690e+00, -1.096979e-15, -6.121899e+01, 1.473777e-16
251, 3, 4.556725e+02, 2.640851e-33, 8.224690e+00, -1.096979e-15, -6.121899e+01, 1.473777e-16
251, 4, 4.556725e+02, 2.640851e-33, 8.224690e+00, -1.096979e-15, -6.121899e+01, 1.473777e-16
251, 5, 4.556725e+02, 2.640851e-33, 8.224690e+00, -1.096979e-15, -6.121899e+01, 1.473777e-16
251, 6, 4.556725e+02, 2.640851e-33, 8.224690e+00, -1.096979e-15, -6.121899e+01, 1.473777e-16
251, 7, 4.556725e+02, 2.640851e-33, 8.224690e+00, -1.096979e-15, -6.121899e+01, 1.473777e-16
251, 8, 4.556725e+02, 2.640851e-33, 8.224690e+00, -1.096979e-15, -6.121899e+01, 1.473777e-16
252, 1, 4.558317e+02, 2.641908e-33, 7.901782e+00, -1.097390e-15, -6.001569e+01, 1.444845e-16
252, 2, 4.558317e+02, 2.641908e-33, 7.901782e+00, -1.097390e-15, -6.001569e+01, 1.444845e-16
252, 3, 4.558317e+02, 2.641908e-33, 7.901782e+00, -1.097390e-15, -6.001569e+01, 1.444845e-16
252, 4, 4.558317e+02, 2.641908e-33, 7.901782e+00, -1.097390e-15, -6.001569e+01, 1.444845e-16
252, 5, 4.558317e+02, 2.641908e-33, 7.901782e+00, -1.097390e-15, -6.001569e+01, 1.444845e-16
252, 6, 4.558317e+02, 2.641908e-33, 7.901782e+00, -1.097390e-15, -6.001569e+01, 1.444845e-16
252, 7, 4.558317e+02, 2.641908e-33, 7.901782e+00, -1.097390e-15, -6.001569e+01, 1.444845e-16
252, 8, 4.558317e+02, 2.641908e-33, 7.901782e+00, -1.097390e-15, -6.001569e+01, 1.444845e-16
253, 1, 4.559890e+02, 2.642992e-33, 7.585297e+00, -1.097805e-15, -5.881166e+01, 1.415905e-16
253, 2, 4.559890e+02, 2.642992e-33, 7.585297e+00, -1.097805e-15, -5.881166e+01, 1.415905e-16
253, 3, 4.559890e+02, 2.642992e-33, 7.585297e+00, -1.097805e-15, -5.881166e+01, 1.415905e-16
253, 4, 4.559890e+02, 2.642992e-33, 7.585297e+00, -1.097805e-15, -5.881166e+01, 1.415905e-16
253, 5, 4.559890e+02, 2.642992e-33, 7.585297e+00, -1.097805e-15, -5.881166e+01, 1.415905e-16
253, 6, 4.559890e+02, 2.642992e-33, 7.585297e+00, -1.097805e-15, -5.881166e+01, 1.415905e-16
253, 7, 4.559890e+02, 2.642992e-33, 7.585297e+00, -1.097805e-15, -5.881166e+01, 1.415905e-16
253, 8, 4.559890e+02, 2.642992e-33, 7.585297e+00, -1.097805e-15, -5.881166e+01, 1.415905e-16
254, 1, 4.561443e+02, 2.644009e-33, 7.275236e+00, -1.098203e-15, -5.760692e+01, 1.386932e-16
254, 2, 4.561443e+02, 2.644009e-33, 7.275236e+00, -1.098203e-15, -5.760692e+01, 1.386932e-16
254, 3, 4.561443e+02, 2.644009e-33, 7.275236e+00, -1.098203e-15, -5.760692e+01, 1.386932e-16
254, 4, 4.561443e+02, 2.644009e-33, 7.275236e+00, -1.098203e-15, -5.760692e+01, 1.386932e-16
254, 5, 4.561443e+02, 2.644009e-33, 7.275236e+00, -1.098203e-15, -5.760692e+01, 1.386932e-16
254, 6, 4.561443e+02, 2.644009e-33, 7.275236e+00, -1.098203e-15, -5.760692e+01, 1.386932e-16
254, 7, 4.561443e+02, 2.644009e-33, 7.275236e+00, -1.098203e-15, -5.760692e+01, 1.386932e-16
254, 8, 4.561443e+02, 2.644009e-33, 7.275236e+00, -1.098203e-15, -5.760692e+01, 1.386932e-16
255, 1, 4.562499e+02, 2.604509e-33, 7.062082e+00, -1.090095e-15, -5.676332e+01, 1.356217e-16
255, 2, 4.562499e+02, 2.604509e-33, 7.062082e+00, -1.090095e-15, -5.676332e+01, 1.356217e-16
255, 3, 4.562499e+02, 2.604509e-33, 7.062082e+00, -1.090095e-15, -5.676332e+01, 1.356217e-16
255, 4, 4.562499e+02, 2.604509e-33, 7.062082e+00, -1.090095e-15, -5.676332e+01, 1.356217e-16
255, 5, 4.562499e+02, 2.604509e-33, 7.062082e+00, -1.090095e-15, -5.676332e+01, 1.356217e-16
255, 6, 4.562499e+02, 2.604509e-33, 7.062082e+00, -1.090095e-15, -5.676332e+01, 1.356217e-16
255, 7, 4.562499e+02, 2.604509e-33, 7.062082e+00, -1.090095e-15, -5.676332e+01, 1.356217e-16
255, 8, 4.562499e+02, 2.604509e-33, 7.062082e+00, -1.090095e-15, -5.676332e+01, 1.356217e-16
256, 1, 4.563328e+02, 2.661039e-33, 6.891696e+00, -1.101962e-15, -5.607947e+01, 1.354218e-16
256, 2, 4.563328e+02, 2.661039e-33, 6.891696e+00, -1.101962e-15, -5.607947e+01, 1.354218e-16
256, 3, 4.563328e+02, 2.661039e-33, 6.891696e+00, -1.101962e-15, -5.607947e+01, 1.354218e-16
256, 4, 4.563328e+02, 2.661039e-33, 6.891696e+00, -1.101962e-15, -5.607947e+01, 1.354218e-16
256, 5, 4.563328e+02, 2.661039e-33, 6.891696e+00, -1.101962e-15, -5.607947e+01, 1.354218e-16
256, 6, 4.563328e+02, 2.661039e-33, 6.891696e+00, -1.101962e-15, -5.607947e+01, 1.354218e-16
256, 7, 4.563328e+02, 2.661039e-33, 6.891696e+00, -1.101962e-15, -5.607947e+01, 1.354218e-16
256, 8, 4.563328e+02, 2.661039e-33, 6.891696e+00, -1.101962e-15, -5.607947e+01, 1.354218e-16
257, 1, 4.564586e+02, 2.646140e-33, 6.640353e+00, -1.099024e-15, -5.505494e+01, 1.325568e-16
257, 2, 4.564586e+02, 2.646140e-33, 6.640353e+00, -1.099024e-15, -5.505494e+01, 1.325568e-16
257, 3, 4.564586e+02, 2.646140e-33, 6.640353e+00, -1.099024e-15, -5.505494e+01, 1.325568e-16
257, 4, 4.564586e+02, 2.646140e-33, 6.640353e+00, -1.099024e-15, -5.505494e+01, 1.325568e-16
257, 5, 4.564586e+02, 2.646140e-33, 6.640353e+00, -1.099024e-15, -5.505494e+01, 1.325568e-16
257, 6, 4.564586e+02, 2.646140e-33, 6.640353e+00, -1.099024e-15, -5.505494e+01, 1.325568e-16
257, 7, 4.564586e+02, 2.646140e-33, 6.640353e+00, -1.099024e-15, -5.505494e+01, 1.325568e-16
257, 8, 4.564586e+02, 2.646140e-33, 6.640353e+00, -1.099024e-15, -5.505494e+01, 1.325568e-16
258, 1, 4.566029e+02, 2.647149e-33, 6.350265e+00, -1.099407e-15, -5.384746e+01, 1.296538e-16
258, 2, 4.566029e+02, 2.647149e-33, 6.350265e+00, -1.099407e-15, -5.384746e+01, 1.296538e-16
258, 3, 4.566029e+02, 2.647149e-33, 6.350265e+00, -1.099407e-15, -5.384746e+01, 1.296538e-16
258, 4, 4.566029e+02, 2.647149e-33, 6.350265e+00, -1.099407e-15, -5.384746e+01, 1.296538e-16
258, 5, 4.566029e+02, 2.647149e-33, 6.350265e+00, -1.099407e-15, -5.384746e+01, 1.296538e-16
258, 6, 4.566029e+02, 2.647149e-33, 6.350265e+00, -1.099407e-15, -5.384746e+01, 1.296538e-16
258, 7, 4.566029e+02, 2.647149e-33, 6.350265e+00, -1.099407e-15, -5.384746e+01, 1.296538e-16
258, 8, 4.566029e+02, 2.647149e-33, 6.350265e+00, -1.099407e-15, -5.384746e+01, 1.296538e-16
259, 1, 4.567431e+02, 2.648026e-33, 6.066590e+00, -1.099758e-15, -5.263908e+01, 1.267458e-16
259, 2, 4.567431e+02, 2.648026e-33, 6.066590e+00, -1.099758e-15, -5.263908e+01, 1.267458e-16
259, 3, 4.567431e+02, 2.648026e-33, 6.066590e+00, -1.099758e-15, -5.263908e+01, 1.267458e-16
259, 4, 4.567431e+02, 2.648026e-33, 6.066590e+00, -1.099758e-15, -5.263908e+01, 1.267458e-16
259, 5, 4.567431e+02, 2.648026e-33, 6.066590e+00, -1.099758e-15, -5.263908e+01, 1.267458e-16
259, 6, 4.567431e+02, 2.648026e-33, 6.066590e+00, -1.099758e-15, -5.263908e+01, 1.267458e-16
259, 7, 4.567431e+02, 2.648026e-33, 6.066590e+00, -1.099758e-15, -5.263908e+01, 1.267458e-16
259, 8, 4.567431e+02, 2.648026e-33, 6.066590e+00, -1.099758e-15, -5.263908e+01, 1.267458e-16
260, 1, 4.568835e+02, 2.649021e-33, 5.789391e+00, -1.100134e-15, -5.143031e+01, 1.238395e-16
260, 2, 4.568835e+02, 2.649021e-33, 5.789391e+00, -1.100134e-15, -5.143031e+01, 1.238395e-16
260, 3, 4.568835e+02, 2.649021e-33, 5.789391e+00, -1.100134e-15, -5.143031e+01, 1.238395e-16
260, 4, 4.568835e+02, 2.649021e-33, 5.789391e+00, -1.100134e-15, -5.143031e+01, 1.238395e-16
260, 5, 4.568835e+02, 2.649021e-33, 5.789391e+00, -1.100134e-15, -5.143031e+01, 1.238395e-16
260, 6, 4.568835e+02, 2.649021e-33, 5.789391e+00, -1.100134e-15, -5.143031e+01, 1.238395e-16
260, 7, 4.568835e+02, 2.649021e-33, 5.789391e+00, -1.100134e-15, -5.143031e+01, 1.238395e-16
260, 8, 4.568835e+02, 2.649021e-33, 5.789391e+00, -1.100134e-15, -5.143031e+01, 1.238395e-16
261, 1, 4.570039e+02, 2.659161e-33, 5.545612e+00, -1.102382e-15, -5.034249e+01, 1.214359e-16
261, 2, 4.570039e+02, 2.659161e-33, 5.545612e+00, -1.102382e-15, -5.034249e+01, 1.214359e-16
261, 3, 4.570039e+02, 2.659161e-33, 5.545612e+00, -1.102382e-15, -5.034249e+01, 1.214359e-16
261, 4, 4.570039e+02, 2.659161e-33, 5.545612e+00, -1.102382e-15, -5.034249e+01, 1.214359e-16
261, 5, 4.570039e+02, 2.659161e-33, 5.545612e+00, -1.102382e-15, -5.034249e+01, 1.214359e-16
261, 6, 4.570039e+02, 2.659161e-33, 5.545612e+00, -1.102382e-15, -5.034249e+01, 1.214359e-16
261, 7, 4.570039e+02, 2.659161e-33, 5.545612e+00, -1.102382e-15, -5.034249e+01, 1.214359e-16
261, 8, 4.570039e+02, 2.659161e-33, 5.545612e+00, -1.102382e-15, -5.034249e+01, 1.214359e-16
262, 1, 4.573778e+02, 2.609005e-33, 4.790581e+00, -1.092383e-15, -4.680924e+01, 1.117974e-16
262, 2, 4.573778e+02, 2.609005e-33, 4.790581e+00, -1.092383e-15, -4.680924e+01, 1.117974e-16
262, 3, 4.573778e+02, 2.609005e-33, 4.790581e+00, -1.092383e-15, -4.680924e+01, 1.117974e-16
262, 4, 4.573778e+02, 2.609005e-33, 4.790581e+00, -1.092383e-15, -4.680924e+01, 1.117974e-16
262, 5, 4.573778e+02, 2.609005e-33, 4.790581e+00, -1.092383e-15, -4.680924e+01, 1.117974e-16
262, 6, 4.573778e+02, 2.609005e-33, 4.790581e+00, -1.092383e-15, -4.680924e+01, 1.117974e-16
262, 7, 4.573778e+02, 2.609005e-33, 4.790581e+00, -1.092383e-15, -4.680924e+01, 1.117974e-16
262, 8, 4.573778e+02, 2.609005e-33, 4.790581e+00, -1.092383e-15, -4.680924e+01, 1.117974e-16
263, 1, 4.574566e+02, 2.652874e-33, 4.631085e+00, -1.101624e-15, -4.602739e+01, 1.108408e-16
263, 2, 4.574566e+02, 2.652874e-33, 4.631085e+00, -1.101624e-15, -4.602739e+01, 1.108408e-16
263, 3, 4.574566e+02, 2.652874e-33, 4.631085e+00, -1.101624e-15, -4.602739e+01, 1.108408e-16
263, 4, 4.574566e+02, 2.652874e-33, 4.631085e+00, -1.101624e-15, -4.602739e+01, 1.108408e-16
263, 5, 4.574566e+02, 2.652874e-33, 4.631085e+00, -1.101624e-15, -4.602739e+01, 1.108408e-16
263, 6, 4.574566e+02, 2.652874e-33, 4.631085e+00, -1.101624e-15, -4.602739e+01, 1.108408e-16
263, 7, 4.574566e+02, 2.652874e-33, 4.631085e+00, -1.101624e-15, -4.602739e+01, 1.108408e-16
263, 8, 4.574566e+02, 2.652874e-33, 4.631085e+00, -1.101624e-15, -4.602739e+01, 1.108408e-16
264, 1, 4.575775e+02, 2.653750e-33, 4.389059e+00, -1.101951e-15, -4.481445e+01, 1.079234e-16
264, 2, 4.575775e+02, 2.653750e-33, 4.389059e+00, -1.101951e-15, -4.481445e+01, 1.079234e-16
264, 3, 4.575775e+02, 2.653750e-33, 4.389059e+00, -1.101951e-15, -4.481445e+01, 1.079234e-16
264, 4, 4.575775e+02, 2.653750e-33, 4.389059e+00, -1.101951e-15, -4.481445e+01, 1.079234e-16
264, 5, 4.575775e+02, 2.653750e-33, 4.389059e+00, -1.101951e-15, -4.481445e+01, 1.079234e-16
264, 6, 4.575775e+02, 2.653750e-33, 4.389059e+00, -1.101951e-15, -4.481445e+01, 1.079234e-16
264, 7, 4.575775e+02, 2.653750e-33, 4.389059e+00, -1.101951e-15, -4.481445e+01, 1.079234e-16
264, 8, 4.575775e+02, 2.653750e-33, 4.389059e+00, -1.101951e-15, -4.481445e+01, 1.079234e-16
265, 1, 4.576942e+02, 2.654537e-33, 4.153483e+00, -1.102255e-15, -4.360075e+01, 1.050027e-16
265, 2, 4.576942e+02, 2.654537e-33, 4.153483e+00, -1.102255e-15, -4.360075e+01, 1.050027e-16
265, 3, 4.576942e+02, 2.654537e-33, 4.153483e+00, -1.102255e-15, -4.360075e+01, 1.050027e-16
265, 4, 4.576942e+02, 2.654537e-33, 4.153483e+00, -1.102255e-15, -4.360075e+01, 1.050027e-16
265, 5, 4.576942e+02, 2.654537e-33, 4.153483e+00, -1.102255e-15, -4.360075e+01, 1.050027e-16
265, 6, 4.576942e+02, 2.654537e-33, 4.153483e+00, -1.102255e-15, -4.360075e+01, 1.050027e-16
265, 7, 4.576942e+02, 2.654537e-33, 4.153483e+00, -1.102255e-15, -4.360075e+01, 1.050027e-16
265, 8, 4.576942e+02, 2.654537e-33, 4.153483e+00, -1.102255e-15, -4.360075e+01, 1.050027e-16
266, 1, 4.578090e+02, 2.655314e-33, 3.924381e+00, -1.102555e-15, -4.238652e+01, 1.020807e-16
266, 2, 4.578090e+02, 2.655314e-33, 3.924381e+00, -1.102555e-15, -4.238652e+01, 1.020807e-16
266, 3, 4.578090e+02, 2.655314e-33, 3.924381e+00, -1.102555e-15, -4.238652e+01, 1.020807e-16
266, 4, 4.578090e+02, 2.655314e-33, 3.924381e+00, -1.102555e-15, -4.238652e+01, 1.020807e-16
266, 5, 4.578090e+02, 2.655314e-33, 3.924381e+00, -1.102555e-15, -4.238652e+01, 1.020807e-16
266, 6, 4.578090e+02, 2.655314e-33, 3.924381e+00, -1.102555e-15, -4.238652e+01, 1.020807e-16
266, 7, 4.578090e+02, 2.655314e-33, 3.924381e+00, -1.102555e-15, -4.238652e+01, 1.020807e-16
266, 8, 4.578090e+02, 2.655314e-33, 3.924381e+00, -1.102555e-15, -4.238652e+01, 1.020807e-16
267, 1, 4.579195e+02, 2.656092e-33, 3.701737e+00, -1.102849e-15, -4.117156e+01, 9.915722e-17
267, 2, 4.579195e+02, 2.656092e-33, 3.701737e+00, -1.102849e-15, -4.117156e+01, 9.915722e-17
267, 3, 4.579195e+02, 2.656092e-33, 3.701737e+00, -1.102849e-15, -4.117156e+01, 9.915722e-17
267, 4, 4.579195e+02, 2.656092e-33, 3.701737e+00, -1.102849e-15, -4.117156e+01, 9.915722e-17
267, 5, 4.579195e+02, 2.656092e-33, 3.701737e+00, -1.102849e-15, -4.117156e+01, 9.915722e-17
267, 6, 4.579195e+02, 2.656092e-33, 3.701737e+00, -1.102849e-15, -4.117156e+01, 9.915722e-17
267, 7, 4.579195e+02, 2.656092e-33, 3.701737e+00, -1.102849e-15, -4.117156e+01, 9.915722e-17
267, 8, 4.579195e+02, 2.656092e-33, 3.701737e+00, -1.102849e-15, -4.117156e+01, 9.915722e-17
268, 1, 4.580008e+02, 2.700137e-33, 3.539739e+00, -1.112054e-15, -4.026417e+01, 9.776389e-17
268, 2, 4.580008e+02, 2.700137e-33, 3.539739e+00, -1.112054e-15, -4.026417e+01, 9.776389e-17
268, 3, 4.580008e+02, 2.700137e-33, 3.539739e+00, -1.112054e-15, -4.026417e+01, 9.776389e-17
268, 4, 4.580008e+02, 2.700137e-33, 3.539739e+00, -1.112054e-15, -4.026417e+01, 9.776389e-17
268, 5, 4.580008e+02, 2.700137e-33, 3.539739e+00, -1.112054e-15, -4.026417e+01, 9.776389e-17
268, 6, 4.580008e+02, 2.700137e-33, 3.539739e+00, -1.112054e-15, -4.026417e+01, 9.776389e-17
268, 7, 4.580008e+02, 2.700137e-33, 3.539739e+00, -1.112054e-15, -4.026417e+01, 9.776389e-17
268, 8, 4.580008e+02, 2.700137e-33, 3.539739e+00, -1.112054e-15, -4.026417e+01, 9.776389e-17
269, 1, 4.580616e+02, 2.685345e-33, 3.418390e+00, -1.109078e-15, -3.957061e+01, 9.581000e-17
269, 2, 4.580616e+02, 2.685345e-33, 3.418390e+00, -1.109078e-15, -3.957061e+01, 9.581000e-17
269, 3, 4.580616e+02, 2.685345e-33, 3.418390e+00, -1.109078e-15, -3.957061e+01, 9.581000e-17
269, 4, 4.580616e+02, 2.685345e-33, 3.418390e+00, -1.109078e-15, -3.957061e+01, 9.581000e-17
269, 5, 4.580616e+02, 2.685345e-33, 3.418390e+00, -1.109078e-15, -3.957061e+01, 9.581000e-17
269, 6, 4.580616e+02, 2.685345e-33, 3.418390e+00, -1.109078e-15, -3.957061e+01, 9.581000e-17
269, 7, 4.580616e+02, 2.685345e-33, 3.418390e+00, -1.109078e-15, -3.957061e+01, 9.581000e-17
269, 8, 4.580616e+02, 2.685345e-33, 3.418390e+00, -1.109078e-15, -3.957061e+01, 9.581000e-17
270, 1, 4.581450e+02, 2.657641e-33, 3.251983e+00, -1.103442e-15, -3.859897e+01, 9.296562e-17
270, 2, 4.581450e+02, 2.657641e-33, 3.251983e+00, -1.103442e-15, -3.859897e+01, 9.296562e-17
270, 3, 4.581450e+02, 2.657641e-33, 3.251983e+00, -1.103442e-15, -3.859897e+01, 9.296562e-17
270, 4, 4.581450e+02, 2.657641e-33, 3.251983e+00, -1.103442e-15, -3.859897e+01, 9.296562e-17
270, 5, 4.581450e+02, 2.657641e-33, 3.251983e+00, -1.103442e-15, -3.859897e+01, 9.296562e-17
270, 6, 4.581450e+02, 2.657641e-33, 3.251983e+00, -1.103442e-15, -3.859897e+01, 9.296562e-17
270, 7, 4.581450e+02, 2.657641e-33, 3.251983e+00, -1.103442e-15, -3.859897e+01, 9.296562e-17
270, 8, 4.581450e+02, 2.657641e-33, 3.251983e+00, -1.103442e-15, -3.859897e+01, 9.296562e-17
271, 1, 4.582466e+02, 2.658291e-33, 3.049522e+00, -1.103700e-15, -3.738226e+01, 9.003620e-17
271, 2, 4.582466e+02, 2.658291e-33, 3.049522e+00, -1.103700e-15, -3.738226e+01, 9.003620e-17
271, 3, 4.582466e+02, 2.658291e-33, 3.049522e+00, -1.103700e-15, -3.738226e+01, 9.003620e-17
271, 4, 4.582466e+02, 2.658291e-33, 3.049522e+00, -1.103700e-15, -3.738226e+01, 9.003620e-17
271, 5, 4.582466e+02, 2.658291e-33, 3.049522e+00, -1.103700e-15, -3.738226e+01, 9.003620e-17
271, 6, 4.582466e+02, 2.658291e-33, 3.049522e+00, -1.103700e-15, -3.738226e+01, 9.003620e-17
271, 7, 4.582466e+02, 2.658291e-33, 3.049522e+00, -1.103700e-15, -3.738226e+01, 9.003620e-17
271, 8, 4.582466e+02, 2.658291e-33, 3.049522e+00, -1.103700e-15, -3.738226e+01, 9.003620e-17
272, 1, 4.583439e+02, 2.659000e-33, 2.853536e+00, -1.103964e-15, -3.616491e+01, 8.710655e-17
272, 2, 4.583439e+02, 2.659000e-33, 2.853536e+00, -1.103964e-15, -3.616491e+01, 8.710655e-17
272, 3, 4.583439e+02, 2.659000e-33, 2.853536e+00, -1.103964e-15, -3.616491e+01, 8.710655e-17
272, 4, 4.583439e+02, 2.659000e-33, 2.853536e+00, -1.103964e-15, -3.616491e+01, 8.710655e-17
272, 5, 4.583439e+02, 2.659000e-33, 2.853536e+00, -1.103964e-15, -3.616491e+01, 8.710655e-17
272, 6, 4.583439e+02, 2.659000e-33, 2.853536e+00, -1.103964e-15, -3.616491e+01, 8.710655e-17
272, 7, 4.583439e+02, 2.659000e-33, 2.853536e+00, -1.103964e-15, -3.616491e+01, 8.710655e-17
272, 8, 4.583439e+02, 2.659000e-33, 2.853536e+00, -1.103964e-15, -3.616491e+01, 8.710655e-17
273, 1, 4.584370e+02, 2.659634e-33, 2.664029e+00, -1.104208e-15, -3.494695e+01, 8.417447e-17
273, 2, 4.584370e+02, 2.659634e-33, 2.664029e+00, -1.104208e-15, -3.494695e+01, 8.417447e-17
273, 3, 4.584370e+02, 2.659634e-33, 2.664029e+00, -1.104208e-15, -3.494695e+01, 8.417447e-17
273, 4, 4.584370e+02, 2.659634e-33, 2.664029e+00, -1.104208e-15, -3.494695e+01, 8.417447e-17
273, 5, 4.584370e+02, 2.659634e-33, 2.664029e+00, -1.104208e-15, -3.494695e+01, 8.417447e-17
273, 6, 4.584370e+02, 2.659634e-33, 2.664029e+00, -1.104208e-15, -3.494695e+01, 8.417447e-17
273, 7, 4.584370e+02, 2.659634e-33, 2.664029e+00, -1.104208e-15, -3.494695e+01, 8.417447e-17
273, 8, 4.584370e+02, 2.659634e-33, 2.664029e+00, -1.104208e-15, -3.494695e+01, 8.417447e-17
274, 1, 4.585281e+02, 2.660259e-33, 2.481018e+00, -1.104447e-15, -3.372857e+01, 8.124131e-17
274, 2, 4.585281e+02, 2.660259e-33, 2.481018e+00, -1.104447e-15, -3.372857e+01, 8.124131e-17
274, 3, 4.585281e+02, 2.660259e-33, 2.481018e+00, -1.104447e-15, -3.372857e+01, 8.124131e-17
274, 4, 4.585281e+02, 2.660259e-33, 2.481018e+00, -1.104447e-15, -3.372857e+01, 8.124131e-17
274, 5, 4.585281e+02, 2.660259e-33, 2.481018e+00, -1.104447e-15, -3.372857e+01, 8.124131e-17
274, 6, 4.585281e+02, 2.660259e-33, 2.481018e+00, -1.104447e-15, -3.372857e+01, 8.124131e-17
274, 7, 4.585281e+02, 2.660259e-33, 2.481018e+00, -1.104447e-15, -3.372857e+01, 8.124131e-17
274, 8, 4.585281e+02, 2.660259e-33, 2.481018e+00, -1.104447e-15, -3.372857e+01, 8.124131e-17
275, 1, 4.585807e+02, 2.613722e-33, 2.374621e+00, -1.094807e-15, -3.299932e+01, 7.878198e-17
275, 2, 4.585807e+02, 2.613722e-33, 2.374621e+00, -1.094807e-15, -3.299932e+01, 7.878198e-17
275, 3, 4.585807e+02, 2.613722e-33, 2.374621e+00, -1.094807e-15, -3.299932e+01, 7.878198e-17
275, 4, 4.585807e+02, 2.613722e-33, 2.374621e+00, -1.094807e-15, -3.299932e+01, 7.878198e-17
275, 5, 4.585807e+02, 2.613722e-33, 2.374621e+00, -1.094807e-15, -3.299932e+01, 7.878198e-17
275, 6, 4.585807e+02, 2.613722e-33, 2.374621e+00, -1.094807e-15, -3.299932e+01, 7.878198e-17
275, 7, 4.585807e+02, 2.613722e-33, 2.374621e+00, -1.094807e-15, -3.299932e+01, 7.878198e-17
275, 8, 4.585807e+02, 2.613722e-33, 2.374621e+00, -1.094807e-15, -3.299932e+01, 7.878198e-17
276, 1, 4.586303e+02, 2.665615e-33, 2.275680e+00, -1.105682e-15, -3.230628e+01, 7.788508e-17
276, 2, 4.586303e+02, 2.665615e-33, 2.275680e+00, -1.105682e-15, -3.230628e+01, 7.788508e-17
276, 3, 4.586303e+02, 2.665615e-33, 2.275680e+00, -1.105682e-15, -3.230628e+01, 7.788508e-17
276, 4, 4.586303e+02, 2.665615e-33, 2.275680e+00, -1.105682e-15, -3.230628e+01, 7.788508e-17
276, 5, 4.586303e+02, 2.665615e-33, 2.275680e+00, -1.105682e-15, -3.230628e+01, 7.788508e-17
276, 6, 4.586303e+02, 2.665615e-33, 2.275680e+00, -1.105682e-15, -3.230628e+01, 7.788508e-17
276, 7, 4.586303e+02, 2.665615e-33, 2.275680e+00, -1.105682e-15, -3.230628e+01, 7.788508e-17
276, 8, 4.586303e+02, 2.665615e-33, 2.275680e+00, -1.105682e-15, -3.230628e+01, 7.788508e-17
277, 1, 4.587123e+02, 2.661589e-33, 2.115165e+00, -1.104945e-15, -3.114888e+01, 7.503134e-17
277, 2, 4.587123e+02, 2.661589e-33, 2.115165e+00, -1.104945e-15, -3.114888e+01, 7.503134e-17
277, 3, 4.587123e+02, 2.661589e-33, 2.115165e+00, -1.104945e-15, -3.114888e+01, 7.503134e-17
277, 4, 4.587123e+02, 2.661589e-33, 2.115165e+00, -1.104945e-15, -3.114888e+01, 7.503134e-17
277, 5, 4.587123e+02, 2.661589e-33, 2.115165e+00, -1.104945e-15, -3.114888e+01, 7.503134e-17
277, 6, 4.587123e+02, 2.661589e-33, 2.115165e+00, -1.104945e-15, -3.114888e+01, 7.503134e-17
277, 7, 4.587123e+02, 2.661589e-33, 2.115165e+00, -1.104945e-15, -3.114888e+01, 7.503134e-17
277, 8, 4.587123e+02, 2.661589e-33, 2.115165e+00, -1.104945e-15, -3.114888e+01, 7.503134e-17
278, 1, 4.587921e+02, 2.662082e-33, 1.952387e+00, -1.105144e-15, -2.992891e+01, 7.209310e-17
278, 2, 4.587921e+02, 2.662082e-33, 1.952387e+00, -1.105144e-15, -2.992891e+01, 7.209310e-17
278, 3, 4.587921e+02, 2.662082e-33, 1.952387e+00, -1.105144e-15, -2.992891e+01, 7.209310e-17
278, 4, 4.587921e+02, 2.662082e-33, 1.952387e+00, -1.105144e-15, -2.992891e+01, 7.209310e-17
278, 5, 4.587921e+02, 2.662082e-33, 1.952387e+00, -1.105144e-15, -2.992891e+01, 7.209310e-17
278, 6, 4.587921e+02, 2.662082e-33, 1.952387e+00, -1.105144e-15, -2.992891e+01, 7.209310e-17
278, 7, 4.587921e+02, 2.662082e-33, 1.952387e+00, -1.105144e-15, -2.992891e+01, 7.209310e-17
278, 8, 4.587921e+02, 2.662082e-33, 1.952387e+00, -1.105144e-15, -2.992891e+01, 7.209310e-17
279, 1, 4.588699e+02, 2.662696e-33, 1.796115e+00, -1.105365e-15, -2.870859e+01, 6.915568e-17
279, 2, 4.588699e+02, 2.662696e-33, 1.796115e+00, -1.105365e-15, -2.870859e+01, 6.915568e-17
279, 3, 4.588699e+02, 2.662696e-33, 1.796115e+00, -1.105365e-15, -2.870859e+01, 6.915568e-17
279, 4, 4.588699e+02, 2.662696e-33, 1.796115e+00, -1.105365e-15, -2.870859e+01, 6.915568e-17
279, 5, 4.588699e+02, 2.662696e-33, 1.796115e+00, -1.105365e-15, -2.870859e+01, 6.915568e-17
279, 6, 4.588699e+02, 2.662696e-33, 1.796115e+00, -1.105365e-15, -2.870859e+01, 6.915568e-17
279, 7, 4.588699e+02, 2.662696e-33, 1.796115e+00, -1.105365e-15, -2.870859e+01, 6.915568e-17
279, 8, 4.588699e+02, 2.662696e-33, 1.796115e+00, -1.105365e-15, -2.870859e+01, 6.915568e-17
280, 1, 4.589435e+02, 2.663236e-33, 1.646342e+00, -1.105565e-15, -2.748778e+01, 6.621630e-17
280, 2, 4.589435e+02, 2.663236e-33, 1.646342e+00, -1.105565e-15, -2.748778e+01, 6.621630e-17
280, 3, 4.589435e+02, 2.663236e-33, 1.646342e+00, -1.105565e-15, -2.748778e+01, 6.621630e-17
280, 4, 4.589435e+02, 2.663236e-33, 1.646342e+00, -1.105565e-15, -2.748778e+01, 6.621630e-17
280, 5, 4.589435e+02, 2.663236e-33, 1.646342e+00, -1.105565e-15, -2.748778e+01, 6.621630e-17
280, 6, 4.589435e+02, 2.663236e-33, 1.646342e+00, -1.105565e-15, -2.748778e+01, 6.621630e-17
280, 7, 4.589435e+02, 2.663236e-33, 1.646342e+00, -1.105565e-15, -2.748778e+01, 6.621630e-17
280, 8, 4.589435e+02, 2.663236e-33, 1.646342e+00, -1.105565e-15, -2.748778e+01, 6.621630e-17
281, 1, 4.590172e+02, 2.663735e-33, 1.503087e+00, -1.105758e-15, -2.626677e+01, 6.327579e-17
281, 2, 4.590172e+02, 2.663735e-33, 1.503087e+00, -1.105758e-15, -2.626677e+01, 6.327579e-17
281, 3, 4.590172e+02, 2.663735e-33, 1.503087e+00, -1.105758e-15, -2.626677e+01, 6.327579e-17
281, 4, 4.590172e+02, 2.663735e-33, 1.503087e+00, -1.105758e-15, -2.626677e+01, 6.327579e-17
281, 5, 4.590172e+02, 2.663735e-33, 1.503087e+00, -1.105758e-15, -2.626677e+01, 6.327579e-17
281, 6, 4.590172e+02, 2.663735e-33, 1.503087e+00, -1.105758e-15, -2.626677e+01, 6.327579e-17
281, 7, 4.590172e+02, 2.663735e-33, 1.503087e+00, -1.105758e-15, -2.626677e+01, 6.327579e-17
281, 8, 4.590172e+02, 2.663735e-33, 1.503087e+00, -1.105758e-15, -2.626677e+01, 6.327579e-17
282, 1, 4.590595e+02, 2.615717e-33, 1.413656e+00, -1.095797e-15, -2.547454e+01, 6.080892e-17
282, 2, 4.590595e+02, 2.615717e-33, 1.413656e+00, -1.095797e-15, -2.547454e+01, 6.080892e-17
282, 3, 4.590595e+02, 2.615717e-33, 1.413656e+00, -1.095797e-15, -2.547454e+01, 6.080892e-17
282, 4, 4.590595e+02, 2.615717e-33, 1.413656e+00, -1.095797e-15, -2.547454e+01, 6.080892e-17
282, 5, 4.590595e+02, 2.615717e-33, 1.413656e+00, -1.095797e-15, -2.547454e+01, 6.080892e-17
282, 6, 4.590595e+02, 2.615717e-33, 1.413656e+00, -1.095797e-15, -2.547454e+01, 6.080892e-17
282, 7, 4.590595e+02, 2.615717e-33, 1.413656e+00, -1.095797e-15, -2.547454e+01, 6.080892e-17
282, 8, 4.590595e+02, 2.615717e-33, 1.413656e+00, -1.095797e-15, -2.547454e+01, 6.080892e-17
283, 1, 4.592448e+02, 2.676209e-33, 1.044575e+00, -1.108618e-15, -2.190241e+01, 5.287248e-17
283, 2, 4.592448e+02, 2.676209e-33, 1.044575e+00, -1.108618e-15, -2.190241e+01, 5.287248e-17
283, 3, 4.592448e+02, 2.676209e-33, 1.044575e+00, -1.108618e-15, -2.190241e+01, 5.287248e-17
283, 4, 4.592448e+02, 2.676209e-33, 1.044575e+00, -1.108618e-15, -2.190241e+01, 5.287248e-17
283, 5, 4.592448e+02, 2.676209e-33, 1.044575e+00, -1.108618e-15, -2.190241e+01, 5.287248e-17
283, 6, 4.592448e+02, 2.676209e-33, 1.044575e+00, -1.108618e-15, -2.190241e+01, 5.287248e-17
283, 7, 4.592448e+02, 2.676209e-33, 1.044575e+00, -1.108618e-15, -2.190241e+01, 5.287248e-17
283, 8, 4.592448e+02, 2.676209e-33, 1.044575e+00, -1.108618e-15, -2.190241e+01, 5.287248e-17
284, 1, 4.592978e+02, 2.665610e-33, 9.422551e-01, -1.106485e-15, -2.080326e+01, 5.011672e-17
284, 2, 4.592978e+02, 2.665610e-33, 9.422551e-01, -1.106485e-15, -2.080326e+01, 5.011672e-17
284, 3, 4.592978e+02, 2.665610e-33, 9.422551e-01, -1.106485e-15, -2.080326e+01, 5.011672e-17
284, 4, 4.592978e+02, 2.665610e-33, 9.422551e-01, -1.106485e-15, -2.080326e+01, 5.011672e-17
284, 5, 4.592978e+02, 2.665610e-33, 9.422551e-01, -1.106485e-15, -2.080326e+01, 5.011672e-17
284, 6, 4.592978e+02, 2.665610e-33, 9.422551e-01, -1.106485e-15, -2.080326e+01, 5.011672e-17
284, 7, 4.592978e+02, 2.665610e-33, 9.422551e-01, -1.106485e-15, -2.080326e+01, 5.011672e-17
284, 8, 4.592978e+02, 2.665610e-33, 9.422551e-01, -1.106485e-15, -2.080326e+01, 5.011672e-17
285, 1, 4.593493e+02, 2.666014e-33, 8.346163e-01, -1.106631e-15, -1.958010e+01, 4.717095e-17
285, 2, 4.593493e+02, 2.666014e-33, 8.346163e-01, -1.106631e-15, -1.958010e+01, 4.717095e-17
285, 3, 4.593493e+02, 2.666014e-33, 8.346163e-01, -1.106631e-15, -1.958010e+01, 4.717095e-17
285, 4, 4.593493e+02, 2.666014e-33, 8.346163e-01, -1.106631e-15, -1.958010e+01, 4.717095e-17
285, 5, 4.593493e+02, 2.666014e-33, 8.346163e-01, -1.106631e-15, -1.958010e+01, 4.717095e-17
285, 6, 4.593493e+02, 2.666014e-33, 8.346163e-01, -1.106631e-15, -1.958010e+01, 4.717095e-17
285, 7, 4.593493e+02, 2.666014e-33, 8.346163e-01, -1.106631e-15, -1.958010e+01, 4.717095e-17
285, 8, 4.593493e+02, 2.666014e-33, 8.346163e-01, -1.106631e-15, -1.958010e+01, 4.717095e-17
286, 1, 4.594011e+02, 2.666348e-33, 7.335033e-01, -1.106763e-15, -1.835680e+01, 4.422415e-17
286, 2, 4.594011e+02, 2.666348e-33, 7.335033e-01, -1.106763e-15, -1.835680e+01, 4.422415e-17
286, 3, 4.594011e+02, 2.666348e-33, 7.335033e-01, -1.106763e-15, -1.835680e+01, 4.422415e-17
286, 4, 4.594011e+02, 2.666348e-33, 7.335033e-01, -1.106763e-15, -1.835680e+01, 4.422415e-17
286, 5, 4.594011e+02, 2.666348e-33, 7.335033e-01, -1.106763e-15, -1.835680e+01, 4.422415e-17
286, 6, 4.594011e+02, 2.666348e-33, 7.335033e-01, -1.106763e-15, -1.835680e+01, 4.422415e-17
286, 7, 4.594011e+02, 2.666348e-33, 7.335033e-01, -1.106763e-15, -1.835680e+01, 4.422415e-17
286, 8, 4.594011e+02, 2.666348e-33, 7.335033e-01, -1.106763e-15, -1.835680e+01, 4.422415e-17
287, 1, 4.594486e+02, 2.666624e-33, 6.389094e-01, -1.106877e-15, -1.713319e+01, 4.127628e-17
287, 2, 4.594486e+02, 2.666624e-33, 6.389094e-01, -1.106877e-15, -1.713319e+01, 4.127628e-17
287, 3, 4.594486e+02, 2.666624e-33, 6.389094e-01, -1.106877e-15, -1.713319e+01, 4.127628e-17
287, 4, 4.594486e+02, 2.666624e-33, 6.389094e-01, -1.106877e-15, -1.713319e+01, 4.127628e-17
287, 5, 4.594486e+02, 2.666624e-33, 6.389094e-01, -1.106877e-15, -1.713319e+01, 4.127628e-17
287, 6, 4.594486e+02, 2.666624e-33, 6.389094e-01, -1.106877e-15, -1.713319e+01, 4.127628e-17
287, 7, 4.594486e+02, 2.666624e-33, 6.389094e-01, -1.106877e-15, -1.713319e+01, 4.127628e-17
287, 8, 4.594486e+02, 2.666624e-33, 6.389094e-01, -1.106877e-15, -1.713319e+01, 4.127628e-17
288, 1, 4.594898e+02, 2.671714e-33, 5.550909e-01, -1.107983e-15, -1.597055e+01, 3.851031e-17
288, 2, 4.594898e+02, 2.671714e-33, 5.550909e-01, -1.107983e-15, -1.597055e+01, 3.851031e-17
288, 3, 4.594898e+02, 2.671714e-33, 5.550909e-01, -1.107983e-15, -1.597055e+01, 3.851031e-17
288, 4, 4.594898e+02, 2.671714e-33, 5.550909e-01, -1.107983e-15, -1.597055e+01, 3.851031e-17
288, 5, 4.594898e+02, 2.671714e-33, 5.550909e-01, -1.107983e-15, -1.597055e+01, 3.851031e-17
288, 6, 4.594898e+02, 2.671714e-33, 5.550909e-01, -1.107983e-15, -1.597055e+01, 3.851031e-17
288, 7, 4.594898e+02, 2.671714e-33, 5.550909e-01, -1.107983e-15, -1.597055e+01, 3.851031e-17
288, 8, 4.594898e+02, 2.671714e-33, 5.550909e-01, -1.107983e-15, -1.597055e+01, 3.851031e-17
289, 1, 4.595127e+02, 2.617489e-33, 5.075636e-01, -1.096708e-15, -1.527193e+01, 3.644917e-17
289, 2, 4.595127e+02, 2.617489e-33, 5.075636e-01, -1.096708e-15, -1.527193e+01, 3.644917e-17
289, 3, 4.595127e+02, 2.617489e-33, 5.075636e-01, -1.096708e-15, -1.527193e+01, 3.644917e-17
289, 4, 4.595127e+02, 2.617489e-33, 5.075636e-01, -1.096708e-15, -1.527193e+01, 3.644917e-17
289, 5, 4.595127e+02, 2.617489e-33, 5.075636e-01, -1.096708e-15, -1.527193e+01, 3.644917e-17
289, 6, 4.595127e+02, 2.617489e-33, 5.075636e-01, -1.096708e-15, -1.527193e+01, 3.644917e-17
289, 7, 4.595127e+02, 2.617489e-33, 5.075636e-01, -1.096708e-15, -1.527193e+01, 3.644917e-17
289, 8, 4.595127e+02, 2.617489e-33, 5.075636e-01, -1.096708e-15, -1.527193e+01, 3.644917e-17
290, 1, 4.595376e+02, 2.667217e-33, 4.602289e-01, -1.107107e-15, -1.454278e+01, 3.503613e-17
290, 2, 4.595376e+02, 2.667217e-33, 4.602289e-01, -1.107107e-15, -1.454278e+01, 3.503613e-17
290, 3, 4.595376e+02, 2.667217e-33, 4.602289e-01, -1.107107e-15, -1.454278e+01, 3.503613e-17
290, 4, 4.595376e+02, 2.667217e-33, 4.602289e-01, -1.107107e-15, -1.454278e+01, 3.503613e-17
290, 5, 4.595376e+02, 2.667217e-33, 4.602289e-01, -1.107107e-15, -1.454278e+01, 3.503613e-17
290, 6, 4.595376e+02, 2.667217e-33, 4.602289e-01, -1.107107e-15, -1.454278e+01, 3.503613e-17
290, 7, 4.595376e+02, 2.667217e-33, 4.602289e-01, -1.107107e-15, -1.454278e+01, 3.503613e-17
290, 8, 4.595376e+02, 2.667217e-33, 4.602289e-01, -1.107107e-15, -1.454278e+01, 3.503613e-17
291, 1, 4.595760e+02, 2.667546e-33, 3.859672e-01, -1.107222e-15, -1.331846e+01, 3.208715e-17
291, 2, 4.595760e+02, 2.667546e-33, 3.859672e-01, -1.107222e-15, -1.331846e+01, 3.208715e-17
291, 3, 4.595760e+02, 2.667546e-33, 3.859672e-01, -1.107222e-15, -1.331846e+01, 3.208715e-17
291, 4, 4.595760e+02, 2.667546e-33, 3.859672e-01, -1.107222e-15, -1.331846e+01, 3.208715e-17
291, 5, 4.595760e+02, 2.667546e-33, 3.859672e-01, -1.107222e-15, -1.331846e+01, 3.208715e-17
291, 6, 4.595760e+02, 2.667546e-33, 3.859672e-01, -1.107222e-15, -1.331846e+01, 3.208715e-17
291, 7, 4.595760e+02, 2.667546e-33, 3.859672e-01, -1.107222e-15, -1.331846e+01, 3.208715e-17
291, 8, 4.595760e+02, 2.667546e-33, 3.859672e-01, -1.107222e-15, -1.331846e+01, 3.208715e-17
292, 1, 4.596079e+02, 2.667804e-33, 3.182299e-01, -1.107314e-15, -1.209384e+01, 2.913718e-17
292, 2, 4.596079e+02, 2.667804e-33, 3.182299e-01, -1.107314e-15, -1.209384e+01, 2.913718e-17
292, 3, 4.596079e+02, 2.667804e-33, 3.182299e-01, -1.107314e-15, -1.209384e+01, 2.913718e-17
292, 4, 4.596079e+02, 2.667804e-33, 3.182299e-01, -1.107314e-15, -1.209384e+01, 2.913718e-17
292, 5, 4.596079e+02, 2.667804e-33, 3.182299e-01, -1.107314e-15, -1.209384e+01, 2.913718e-17
292, 6, 4.596079e+02, 2.667804e-33, 3.182299e-01, -1.107314e-15, -1.209384e+01, 2.913718e-17
292, 7, 4.596079e+02, 2.667804e-33, 3.182299e-01, -1.107314e-15, -1.209384e+01, 2.913718e-17
292, 8, 4.596079e+02, 2.667804e-33, 3.182299e-01, -1.107314e-15, -1.209384e+01, 2.913718e-17
293, 1, 4.596399e+02, 2.667975e-33, 2.570232e-01, -1.107388e-15, -1.086914e+01, 2.618647e-17
293, 2, 4.596399e+02, 2.667975e-33, 2.570232e-01, -1.107388e-15, -1.086914e+01, 2.618647e-17
293, 3, 4.596399e+02, 2.667975e-33, 2.570232e-01, -1.107388e-15, -1.086914e+01, 2.618647e-17
293, 4, 4.596399e+02, 2.667975e-33, 2.570232e-01, -1.107388e-15, -1.086914e+01, 2.618647e-17
293, 5, 4.596399e+02, 2.667975e-33, 2.570232e-01, -1.107388e-15, -1.086914e+01, 2.618647e-17
293, 6, 4.596399e+02, 2.667975e-33, 2.570232e-01, -1.107388e-15, -1.086914e+01, 2.618647e-17
293, 7, 4.596399e+02, 2.667975e-33, 2.570232e-01, -1.107388e-15, -1.086914e+01, 2.618647e-17
293, 8, 4.596399e+02, 2.667975e-33, 2.570232e-01, -1.107388e-15, -1.086914e+01, 2.618647e-17
294, 1, 4.596654e+02, 2.668106e-33, 2.023438e-01, -1.107446e-15, -9.644193e+00, 2.323520e-17
294, 2, 4.596654e+02, 2.668106e-33, 2.023438e-01, -1.107446e-15, -9.644193e+00, 2.323520e-17
294, 3, 4.596654e+02, 2.668106e-33, 2.023438e-01, -1.107446e-15, -9.644193e+00, 2.323520e-17
294, 4, 4.596654e+02, 2.668106e-33, 2.023438e-01, -1.107446e-15, -9.644193e+00, 2.323520e-17
294, 5, 4.596654e+02, 2.668106e-33, 2.023438e-01, -1.107446e-15, -9.644193e+00, 2.323520e-17
294, 6, 4.596654e+02, 2.668106e-33, 2.023438e-01, -1.107446e-15, -9.644193e+00, 2.323520e-17
294, 7, 4.596654e+02, 2.668106e-33, 2.023438e-01, -1.107446e-15, -9.644193e+00, 2.323520e-17
294, 8, 4.596654e+02, 2.668106e-33, 2.023438e-01, -1.107446e-15, -9.644193e+00, 2.323520e-17
295, 1, 4.596865e+02, 2.699343e-33, 1.633718e-01, -1.113935e-15, -8.666015e+00, 2.099992e-17
295, 2, 4.596865e+02, 2.699343e-33, 1.633718e-01, -1.113935e-15, -8.666015e+00, 2.099992e-17
295, 3, 4.596865e+02, 2.699343e-33, 1.633718e-01, -1.113935e-15, -8.666015e+00, 2.099992e-17
295, 4, 4.596865e+02, 2.699343e-33, 1.633718e-01, -1.113935e-15, -8.666015e+00, 2.099992e-17
295, 5, 4.596865e+02, 2.699343e-33, 1.633718e-01, -1.113935e-15, -8.666015e+00, 2.099992e-17
295, 6, 4.596865e+02, 2.699343e-33, 1.633718e-01, -1.113935e-15, -8.666015e+00, 2.099992e-17
295, 7, 4.596865e+02, 2.699343e-33, 1.633718e-01, -1.113935e-15, -8.666015e+00, 2.099992e-17
295, 8, 4.596865e+02, 2.699343e-33, 1.633718e-01, -1.113935e-15, -8.666015e+00, 2.099992e-17
296, 1, 4.596961e+02, 2.717218e-33, 1.381004e-01, -1.117629e-15, -7.967698e+00, 1.937134e-17
296, 2, 4.596961e+02, 2.717218e-33, 1.381004e-01, -1.117629e-15, -7.967698e+00, 1.937134e-17
296, 3, 4.596961e+02, 2.717218e-33, 1.381004e-01, -1.117629e-15, -7.967698e+00, 1.937134e-17
296, 4, 4.596961e+02, 2.717218e-33, 1.381004e-01, -1.117629e-15, -7.967698e+00, 1.937134e-17
296, 5, 4.596961e+02, 2.717218e-33, 1.381004e-01, -1.117629e-15, -7.967698e+00, 1.937134e-17
296, 6, 4.596961e+02, 2.717218e-33, 1.381004e-01, -1.117629e-15, -7.967698e+00, 1.937134e-17
296, 7, 4.596961e+02, 2.717218e-33, 1.381004e-01, -1.117629e-15, -7.967698e+00, 1.937134e-17
296, 8, 4.596961e+02, 2.717218e-33, 1.381004e-01, -1.117629e-15, -7.967698e+00, 1.937134e-17
297, 1, 4.597125e+02, 2.668414e-33, 1.081601e-01, -1.107566e-15, -7.051421e+00, 1.698870e-17
297, 2, 4.597125e+02, 2.668414e-33, 1.081601e-01, -1.107566e-15, -7.051421e+00, 1.698870e-17
297, 3, 4.597125e+02, 2.668414e-33, 1.081601e-01, -1.107566e-15, -7.051421e+00, 1.698870e-17
297, 4, 4.597125e+02, 2.668414e-33, 1.081601e-01, -1.107566e-15, -7.051421e+00, 1.698870e-17
297, 5, 4.597125e+02, 2.668414e-33, 1.081601e-01, -1.107566e-15, -7.051421e+00, 1.698870e-17
297, 6, 4.597125e+02, 2.668414e-33, 1.081601e-01, -1.107566e-15, -7.051421e+00, 1.698870e-17
297, 7, 4.597125e+02, 2.668414e-33, 1.081601e-01, -1.107566e-15, -7.051421e+00, 1.698870e-17
297, 8, 4.597125e+02, 2.668414e-33, 1.081601e-01, -1.107566e-15, -7.051421e+00, 1.698870e-17
298, 1, 4.597312e+02, 2.668603e-33, 7.383456e-02, -1.107628e-15, -5.826152e+00, 1.403692e-17
298, 2, 4.597312e+02, 2.668603e-33, 7.383456e-02, -1.107628e-15, -5.826152e+00, 1.403692e-17
298, 3, 4.597312e+02, 2.668603e-33, 7.383456e-02, -1.107628e-15, -5.826152e+00, 1.403692e-17
298, 4, 4.597312e+02, 2.668603e-33, 7.383456e-02, -1.107628e-15, -5.826152e+00, 1.403692e-17
298, 5, 4.597312e+02, 2.668603e-33, 7.383456e-02, -1.107628e-15, -5.826152e+00, 1.403692e-17
298, 6, 4.597312e+02, 2.668603e-33, 7.383456e-02, -1.107628e-15, -5.826152e+00, 1.403692e-17
298, 7, 4.597312e+02, 2.668603e-33, 7.383456e-02, -1.107628e-15, -5.826152e+00, 1.403692e-17
298, 8, 4.597312e+02, 2.668603e-33, 7.383456e-02, -1.107628e-15, -5.826152e+00, 1.403692e-17
299, 1, 4.597433e+02, 2.668601e-33, 4.604081e-02, -1.107642e-15, -4.600756e+00, 1.108443e-17
299, 2, 4.597433e+02, 2.668601e-33, 4.604081e-02, -1.107642e-15, -4.600756e+00, 1.108443e-17
299, 3, 4.597433e+02, 2.668601e-33, 4.604081e-02, -1.107642e-15, -4.600756e+00, 1.108443e-17
299, 4, 4.597433e+02, 2.668601e-33, 4.604081e-02, -1.107642e-15, -4.600756e+00, 1.108443e-17
299, 5, 4.597433e+02, 2.668601e-33, 4.604081e-02, -1.107642e-15, -4.600756e+00, 1.108443e-17
299, 6, 4.597433e+02, 2.668601e-33, 4.604081e-02, -1.107642e-15, -4.600756e+00, 1.108443e-17
299, 7, 4.597433e+02, 2.668601e-33, 4.604081e-02, -1.107642e-15, -4.600756e+00, 1.108443e-17
299, 8, 4.597433e+02, 2.668601e-33, 4.604081e-02, -1.107642e-15, -4.600756e+00, 1.108443e-17
300, 1, 4.597556e+02, 2.668740e-33, 2.478017e-02, -1.107686e-15, -3.375325e+00, 8.132148e-18
300, 2, 4.597556e+02, 2.668740e-33, 2.478017e-02, -1.107686e-15, -3.375325e+00, 8.132148e-18
300, 3, 4.597556e+02, 2.668740e-33, 2.478017e-02, -1.107686e-15, -3.375325e+00, 8.132148e-18
300, 4, 4.597556e+02, 2.668740e-33, 2.478017e-02, -1.107686e-15, -3.375325e+00, 8.132148e-18
300, 5, 4.597556e+02, 2.668740e-33, 2.478017e-02, -1.107686e-15, -3.375325e+00, 8.132148e-18
300, 6, 4.597556e+02, 2.668740e-33, 2.478017e-02, -1.107686e-15, -3.375325e+00, 8.132148e-18
300, 7, 4.597556e+02, 2.668740e-33, 2.478017e-02, -1.107686e-15, -3.375325e+00, 8.132148e-18
300, 8, 4.597556e+02, 2.668740e-33, 2.478017e-02, -1.107686e-15, -3.375325e+00, 8.132148e-18
301, 1, 4.597631e+02, 2.666862e-33, 1.051786e-02, -1.107305e-15, -2.199028e+00, 5.296194e-18
301, 2, 4.597631e+02, 2.666862e-33, 1.051786e-02, -1.107305e-15, -2.199028e+00, 5.296194e-18
301, 3, 4.597631e+02, 2.666862e-33, 1.051786e-02, -1.107305e-15, -2.199028e+00, 5.296194e-18
301, 4, 4.597631e+02, 2.666862e-33, 1.051786e-02, -1.107305e-15, -2.199028e+00, 5.296194e-18
301, 5, 4.597631e+02, 2.666862e-33, 1.051786e-02, -1.107305e-15, -2.199028e+00, 5.296194e-18
301, 6, 4.597631e+02, 2.666862e-33, 1.051786e-02, -1.107305e-15, -2.199028e+00, 5.296194e-18
301, 7, 4.597631e+02, 2.666862e-33, 1.051786e-02, -1.107305e-15, -2.199028e+00, 5.296194e-18
301, 8, 4.597631e+02, 2.666862e-33, 1.051786e-02, -1.107305e-15, -2.199028e+00, 5.296194e-18
302, 1, 4.597635e+02, 3.823278e-30, 1.011172e-02, 4.192617e-14, 2.156154e+00, 1.966213e-16
302, 2, 4.597635e+02, 3.823278e-30, 1.011172e-02, 4.192617e-14, 2.156154e+00, 1.966213e-16
302, 3, 4.597635e+02, 3.823278e-30, 1.011172e-02, 4.192617e-14, 2.156154e+00, 1.966213e-16
302, 4, 4.597635e+02, 3.823278e-30, 1.011172e-02, 4.192617e-14, 2.156154e+00, 1.966213e-16
302, 5, 4.597635e+02, 3.823278e-30, 1.011172e-02, 4.192617e-14, 2.156154e+00, 1.966213e-16
302, 6, 4.597635e+02, 3.823278e-30, 1.011172e-02, 4.192617e-14, 2.156154e+00, 1.966213e-16
302, 7, 4.597635e+02, 3.823278e-30, 1.011172e-02, 4.192617e-14, 2.156154e+00, 1.966213e-16
302, 8, 4.597635e+02, 3.823278e-30, 1.011172e-02, 4.192617e-14, 2.156154e+00, 1.966213e-16
303, 1, 4.597562e+02, 5.991419e-40, 2.415466e-02, -5.248421e-19, 3.332455e+00, -3.804217e-21
303, 2, 4.597562e+02, 5.991419e-40, 2.415466e-02, -5.248421e-19, 3.332455e+00, -3.804217e-21
303, 3, 4.597562e+02, 5.991419e-40, 2.415466e-02, -5.248421e-19, 3.332455e+00, -3.804217e-21
303, 4, 4.597562e+02, 5.991419e-40, 2.415466e-02, -5.248421e-19, 3.332455e+00, -3.804217e-21
303, 5, 4.597562e+02, 5.991419e-40, 2.415466e-02, -5.248421e-19, 3.332455e+00, -3.804217e-21
303, 6, 4.597562e+02, 5.991419e-40, 2.415466e-02, -5.248421e-19, 3.332455e+00, -3.804217e-21
303, 7, 4.597562e+02, 5.991419e-40, 2.415466e-02, -5.248421e-19, 3.332455e+00, -3.804217e-21
303, 8, 4.597562e+02, 5.991419e-40, 2.415466e-02, -5.248421e-19, 3.332455e+00, -3.804217e-21
304, 1, 4.597441e+02, 5.993869e-40, 4.518677e-02, -5.249425e-19, 4.557889e+00, -5.204264e-21
304, 2, 4.597441e+02, 5.993869e-40, 4.518677e-02, -5.249425e-19, 4.557889e+00, -5.204264e-21
304, 3, 4.597441e+02, 5.993869e-40, 4.518677e-02, -5.249425e-19, 4.557889e+00, -5.204264e-21
304, 4, 4.597441e+02, 5.993869e-40, 4.518677e-02, -5.249425e-19, 4.557889e+00, -5.204264e-21
304, 5, 4.597441e+02, 5.993869e-40, 4.518677e-02, -5.249425e-19, 4.557889e+00, -5.204264e-21
304, 6, 4.597441e+02, 5.993869e-40, 4.518677e-02, -5.249425e-19, 4.557889e+00, -5.204264e-21
304, 7, 4.597441e+02, 5.993869e-40, 4.518677e-02, -5.249425e-19, 4.557889e+00, -5.204264e-21
304, 8, 4.597441e+02, 5.993869e-40, 4.518677e-02, -5.249425e-19, 4.557889e+00, -5.204264e-21
305, 1, 4.597323e+02, 5.993567e-40, 7.275202e-02, -5.249225e-19, 5.783291e+00, -6.603364e-21
305, 2, 4.597323e+02, 5.993567e-40, 7.275202e-02, -5.249225e-19, 5.783291e+00, -6.603364e-21
305, 3, 4.597323e+02, 5.993567e-40, 7.275202e-02, -5.249225e-19, 5.783291e+00, -6.603364e-21
305, 4, 4.597323e+02, 5.993567e-40, 7.275202e-02, -5.249225e-19, 5.783291e+00, -6.603364e-21
305, 5, 4.597323e+02, 5.993567e-40, 7.275202e-02, -5.249225e-19, 5.783291e+00, -6.603364e-21
305, 6, 4.597323e+02, 5.993567e-40, 7.275202e-02, -5.249225e-19, 5.783291e+00, -6.603364e-21
305, 7, 4.597323e+02, 5.993567e-40, 7.275202e-02, -5.249225e-19, 5.783291e+00, -6.603364e-21
305, 8, 4.597323e+02, 5.993567e-40, 7.275202e-02, -5.249225e-19, 5.783291e+00, -6.603364e-21
306, 1, 4.597139e+02, 5.992699e-40, 1.068491e-01, -5.248739e-19, 7.008567e+00, -8.001965e-21
306, 2, 4.597139e+02, 5.992699e-40, 1.068491e-01, -5.248739e-19, 7.008567e+00, -8.001965e-21
306, 3, 4.597139e+02, 5.992699e-40, 1.068491e-01, -5.248739e-19, 7.008567e+00, -8.001965e-21
306, 4, 4.597139e+02, 5.992699e-40, 1.068491e-01, -5.248739e-19, 7.008567e+00, -8.001965e-21
306, 5, 4.597139e+02, 5.992699e-40, 1.068491e-01, -5.248739e-19, 7.008567e+00, -8.001965e-21
306, 6, 4.597139e+02, 5.992699e-40, 1.068491e-01, -5.248739e-19, 7.008567e+00, -8.001965e-21
306, 7, 4.597139e+02, 5.992699e-40, 1.068491e-01, -5.248739e-19, 7.008567e+00, -8.001965e-21
306, 8, 4.597139e+02, 5.992699e-40, 1.068491e-01, -5.248739e-19, 7.008567e+00, -8.001965e-21
307, 1, 4.596955e+02, 5.987309e-40, 1.409387e-01, -5.246274e-19, 8.049154e+00, -9.186097e-21
307, 2, 4.596955e+02, 5.987309e-40, 1.409387e-01, -5.246274e-19, 8.049154e+00, -9.186097e-21
307, 3, 4.596955e+02, 5.987309e-40, 1.409387e-01, -5.246274e-19, 8.049154e+00, -9.186097e-21
307, 4, 4.596955e+02, 5.987309e-40, 1.409387e-01, -5.246274e-19, 8.049154e+00, -9.186097e-21
307, 5, 4.596955e+02, 5.987309e-40, 1.409387e-01, -5.246274e-19, 8.049154e+00, -9.186097e-21
307, 6, 4.596955e+02, 5.987309e-40, 1.409387e-01, -5.246274e-19, 8.049154e+00, -9.186097e-21
307, 7, 4.596955e+02, 5.987309e-40, 1.409387e-01, -5.246274e-19, 8.049154e+00, -9.186097e-21
307, 8, 4.596955e+02, 5.987309e-40, 1.409387e-01, -5.246274e-19, 8.049154e+00, -9.186097e-21
308, 1, 4.596834e+02, 5.961488e-40, 1.664852e-01, -5.234880e-19, 8.748171e+00, -9.962428e-21
308, 2, 4.596834e+02, 5.961488e-40, 1.664852e-01, -5.234880e-19, 8.748171e+00, -9.962428e-21
308, 3, 4.596834e+02, 5.961488e-40, 1.664852e-01, -5.234880e-19, 8.748171e+00, -9.962428e-21
308, 4, 4.596834e+02, 5.961488e-40, 1.664852e-01, -5.234880e-19, 8.748171e+00, -9.962428e-21
308, 5, 4.596834e+02, 5.961488e-40, 1.664852e-01, -5.234880e-19, 8.748171e+00, -9.962428e-21
308, 6, 4.596834e+02, 5.961488e-40, 1.664852e-01, -5.234880e-19, 8.748171e+00, -9.962428e-21
308, 7, 4.596834e+02, 5.961488e-40, 1.664852e-01, -5.234880e-19, 8.748171e+00, -9.962428e-21
308, 8, 4.596834e+02, 5.961488e-40, 1.664852e-01, -5.234880e-19, 8.748171e+00, -9.962428e-21
309, 1, 4.596672e+02, 5.993977e-40, 2.005495e-01, -5.249033e-19, 9.601355e+00, -1.096398e-20
309, 2, 4.596672e+02, 5.993977e-40, 2.005495e-01, -5.249033e-19, 9.601355e+00, -1.096398e-20
309, 3, 4.596672e+02, 5.993977e-40, 2.005495e-01, -5.249033e-19, 9.601355e+00, -1.096398e-20
309, 4, 4.596672e+02, 5.993977e-40, 2.005495e-01, -5.249033e-19, 9.601355e+00, -1.096398e-20
309, 5, 4.596672e+02, 5.993977e-40, 2.005495e-01, -5.249033e-19, 9.601355e+00, -1.096398e-20
309, 6, 4.596672e+02, 5.993977e-40, 2.005495e-01, -5.249033e-19, 9.601355e+00, -1.096398e-20
309, 7, 4.596672e+02, 5.993977e-40, 2.005495e-01, -5.249033e-19, 9.601355e+00, -1.096398e-20
309, 8, 4.596672e+02, 5.993977e-40, 2.005495e-01, -5.249033e-19, 9.601355e+00, -1.096398e-20
310, 1, 4.596397e+02, 5.992730e-40, 2.549993e-01, -5.248330e-19, 1.082625e+01, -1.236180e-20
310, 2, 4.596397e+02, 5.992730e-40, 2.549993e-01, -5.248330e-19, 1.082625e+01, -1.236180e-20
310, 3, 4.596397e+02, 5.992730e-40, 2.549993e-01, -5.248330e-19, 1.082625e+01, -1.236180e-20
310, 4, 4.596397e+02, 5.992730e-40, 2.549993e-01, -5.248330e-19, 1.082625e+01, -1.236180e-20
310, 5, 4.596397e+02, 5.992730e-40, 2.549993e-01, -5.248330e-19, 1.082625e+01, -1.236180e-20
310, 6, 4.596397e+02, 5.992730e-40, 2.549993e-01, -5.248330e-19, 1.082625e+01, -1.236180e-20
310, 7, 4.596397e+02, 5.992730e-40, 2.549993e-01, -5.248330e-19, 1.082625e+01, -1.236180e-20
310, 8, 4.596397e+02, 5.992730e-40, 2.549993e-01, -5.248330e-19, 1.082625e+01, -1.236180e-20
311, 1, 4.596101e+02, 5.991341e-40, 3.159791e-01, -5.247552e-19, 1.205102e+01, -1.375914e-20
311, 2, 4.596101e+02, 5.991341e-40, 3.159791e-01, -5.247552e-19, 1.205102e+01, -1.375914e-20
311, 3, 4.596101e+02, 5.991341e-40, 3.159791e-01, -5.247552e-19, 1.205102e+01, -1.375914e-20
311, 4, 4.596101e+02, 5.991341e-40, 3.159791e-01, -5.247552e-19, 1.205102e+01, -1.375914e-20
311, 5, 4.596101e+02, 5.991341e-40, 3.159791e-01, -5.247552e-19, 1.205102e+01, -1.375914e-20
311, 6, 4.596101e+02, 5.991341e-40, 3.159791e-01, -5.247552e-19, 1.205102e+01, -1.375914e-20
311, 7, 4.596101e+02, 5.991341e-40, 3.159791e-01, -5.247552e-19, 1.205102e+01, -1.375914e-20
311, 8, 4.596101e+02, 5.991341e-40, 3.159791e-01, -5.247552e-19, 1.205102e+01, -1.375914e-20
312, 1, 4.595740e+02, 5.989303e-40, 3.834845e-01, -5.246454e-19, 1.327552e+01, -1.515521e-20
312, 2, 4.595740e+02, 5.989303e-40, 3.834845e-01, -5.246454e-19, 1.327552e+01, -1.515521e-20
312, 3, 4.595740e+02, 5.989303e-40, 3.834845e-01, -5.246454e-19, 1.327552e+01, -1.515521e-20
312, 4, 4.595740e+02, 5.989303e-40, 3.834845e-01, -5.246454e-19, 1.327552e+01, -1.515521e-20
312, 5, 4.595740e+02, 5.989303e-40, 3.834845e-01, -5.246454e-19, 1.327552e+01, -1.515521e-20
312, 6, 4.595740e+02, 5.989303e-40, 3.834845e-01, -5.246454e-19, 1.327552e+01, -1.515521e-20
312, 7, 4.595740e+02, 5.989303e-40, 3.834845e-01, -5.246454e-19, 1.327552e+01, -1.515521e-20
312, 8, 4.595740e+02, 5.989303e-40, 3.834845e-01, -5.246454e-19, 1.327552e+01, -1.515521e-20
313, 1, 4.595381e+02, 5.992552e-40, 4.575197e-01, -5.247672e-19, 1.449992e+01, -1.655811e-20
313, 2, 4.595381e+02, 5.992552e-40, 4.575197e-01, -5.247672e-19, 1.449992e+01, -1.655811e-20
313, 3, 4.595381e+02, 5.992552e-40, 4.575197e-01, -5.247672e-19, 1.449992e+01, -1.655811e-20
313, 4, 4.595381e+02, 5.992552e-40, 4.575197e-01, -5.247672e-19, 1.449992e+01, -1.655811e-20
313, 5, 4.595381e+02, 5.992552e-40, 4.575197e-01, -5.247672e-19, 1.449992e+01, -1.655811e-20
313, 6, 4.595381e+02, 5.992552e-40, 4.575197e-01, -5.247672e-19, 1.449992e+01, -1.655811e-20
313, 7, 4.595381e+02, 5.992552e-40, 4.575197e-01, -5.247672e-19, 1.449992e+01, -1.655811e-20
313, 8, 4.595381e+02, 5.992552e-40, 4.575197e-01, -5.247672e-19, 1.449992e+01, -1.655811e-20
314, 1, 4.595116e+02, 5.961359e-40, 5.131511e-01, -5.233845e-19, 1.535574e+01, -1.749022e-20
314, 2, 4.595116e+02, 5.961359e-40, 5.131511e-01, -5.233845e-19, 1.535574e+01, -1.749022e-20
314, 3, 4.595116e+02, 5.961359e-40, 5.131511e-01, -5.233845e-19, 1.535574e+01, -1.749022e-20
314, 4, 4.595116e+02, 5.961359e-40, 5.131511e-01, -5.233845e-19, 1.535574e+01, -1.749022e-20
314, 5, 4.595116e+02, 5.961359e-40, 5.131511e-01, -5.233845e-19, 1.535574e+01, -1.749022e-20
314, 6, 4.595116e+02, 5.961359e-40, 5.131511e-01, -5.233845e-19, 1.535574e+01, -1.749022e-20
314, 7, 4.595116e+02, 5.961359e-40, 5.131511e-01, -5.233845e-19, 1.535574e+01, -1.749022e-20
314, 8, 4.595116e+02, 5.961359e-40, 5.131511e-01, -5.233845e-19, 1.535574e+01, -1.749022e-20
315, 1, 4.594864e+02, 5.982911e-40, 5.608027e-01, -5.243154e-19, 1.605245e+01, -1.831729e-20
315, 2, 4.594864e+02, 5.982911e-40, 5.608027e-01, -5.243154e-19, 1.605245e+01, -1.831729e-20
315, 3, 4.594864e+02, 5.982911e-40, 5.608027e-01, -5.243154e-19, 1.605245e+01, -1.831729e-20
315, 4, 4.594864e+02, 5.982911e-40, 5.608027e-01, -5.243154e-19, 1.605245e+01, -1.831729e-20
315, 5, 4.594864e+02, 5.982911e-40, 5.608027e-01, -5.243154e-19, 1.605245e+01, -1.831729e-20
315, 6, 4.594864e+02, 5.982911e-40, 5.608027e-01, -5.243154e-19, 1.605245e+01, -1.831729e-20
315, 7, 4.594864e+02, 5.982911e-40, 5.608027e-01, -5.243154e-19, 1.605245e+01, -1.831729e-20
315, 8, 4.594864e+02, 5.982911e-40, 5.608027e-01, -5.243154e-19, 1.605245e+01, -1.831729e-20
316, 1, 4.594496e+02, 5.989897e-40, 6.357170e-01, -5.246004e-19, 1.709035e+01, -1.951379e-20
316, 2, 4.594496e+02, 5.989897e-40, 6.357170e-01, -5.246004e-19, 1.709035e+01, -1.951379e-20
316, 3, 4.594496e+02, 5.989897e-40, 6.357170e-01, -5.246004e-19, 1.709035e+01, -1.951379e-20
316, 4, 4.594496e+02, 5.989897e-40, 6.357170e-01, -5.246004e-19, 1.709035e+01, -1.951379e-20
316, 5, 4.594496e+02, 5.989897e-40, 6.357170e-01, -5.246004e-19, 1.709035e+01, -1.951379e-20
316, 6, 4.594496e+02, 5.989897e-40, 6.357170e-01, -5.246004e-19, 1.709035e+01, -1.951379e-20
316, 7, 4.594496e+02, 5.989897e-40, 6.357170e-01, -5.246004e-19, 1.709035e+01, -1.951379e-20
316, 8, 4.594496e+02, 5.989897e-40, 6.357170e-01, -5.246004e-19, 1.709035e+01, -1.951379e-20
317, 1, 4.594023e+02, 5.987727e-40, 7.300828e-01, -5.244784e-19, 1.831398e+01, -2.090822e-20
317, 2, 4.594023e+02, 5.987727e-40, 7.300828e-01, -5.244784e-19, 1.831398e+01, -2.090822e-20
317, 3, 4.594023e+02, 5.987727e-40, 7.300828e-01, -5.244784e-19, 1.831398e+01, -2.090822e-20
317, 4, 4.594023e+02, 5.987727e-40, 7.300828e-01, -5.244784e-19, 1.831398e+01, -2.090822e-20
317, 5, 4.594023e+02, 5.987727e-40, 7.300828e-01, -5.244784e-19, 1.831398e+01, -2.090822e-20
317, 6, 4.594023e+02, 5.987727e-40, 7.300828e-01, -5.244784e-19, 1.831398e+01, -2.090822e-20
317, 7, 4.594023e+02, 5.987727e-40, 7.300828e-01, -5.244784e-19, 1.831398e+01, -2.090822e-20
317, 8, 4.594023e+02, 5.987727e-40, 7.300828e-01, -5.244784e-19, 1.831398e+01, -2.090822e-20
318, 1, 4.593530e+02, 5.987444e-40, 8.309718e-01, -5.244378e-19, 1.953738e+01, -2.230560e-20
318, 2, 4.593530e+02, 5.987444e-40, 8.309718e-01, -5.244378e-19, 1.953738e+01, -2.230560e-20
318, 3, 4.593530e+02, 5.987444e-40, 8.309718e-01, -5.244378e-19, 1.953738e+01, -2.230560e-20
318, 4, 4.593530e+02, 5.987444e-40, 8.309718e-01, -5.244378e-19, 1.953738e+01, -2.230560e-20
318, 5, 4.593530e+02, 5.987444e-40, 8.309718e-01, -5.244378e-19, 1.953738e+01, -2.230560e-20
318, 6, 4.593530e+02, 5.987444e-40, 8.309718e-01, -5.244378e-19, 1.953738e+01, -2.230560e-20
318, 7, 4.593530e+02, 5.987444e-40, 8.309718e-01, -5.244378e-19, 1.953738e+01, -2.230560e-20
318, 8, 4.593530e+02, 5.987444e-40, 8.309718e-01, -5.244378e-19, 1.953738e+01, -2.230560e-20
319, 1, 4.592971e+02, 5.986717e-40, 9.383740e-01, -5.243741e-19, 2.076036e+01, -2.370186e-20
319, 2, 4.592971e+02, 5.986717e-40, 9.383740e-01, -5.243741e-19, 2.076036e+01, -2.370186e-20
319, 3, 4.592971e+02, 5.986717e-40, 9.383740e-01, -5.243741e-19, 2.076036e+01, -2.370186e-20
319, 4, 4.592971e+02, 5.986717e-40, 9.383740e-01, -5.243741e-19, 2.076036e+01, -2.370186e-20
319, 5, 4.592971e+02, 5.986717e-40, 9.383740e-01, -5.243741e-19, 2.076036e+01, -2.370186e-20
319, 6, 4.592971e+02, 5.986717e-40, 9.383740e-01, -5.243741e-19, 2.076036e+01, -2.370186e-20
319, 7, 4.592971e+02, 5.986717e-40, 9.383740e-01, -5.243741e-19, 2.076036e+01, -2.370186e-20
319, 8, 4.592971e+02, 5.986717e-40, 9.383740e-01, -5.243741e-19, 2.076036e+01, -2.370186e-20
320, 1, 4.592487e+02, 5.984649e-40, 1.040598e+00, -5.242559e-19, 2.186077e+01, -2.495518e-20
320, 2, 4.592487e+02, 5.984649e-40, 1.040598e+00, -5.242559e-19, 2.186077e+01, -2.495518e-20
320, 3, 4.592487e+02, 5.984649e-40, 1.040598e+00, -5.242559e-19, 2.186077e+01, -2.495518e-20
320, 4, 4.592487e+02, 5.984649e-40, 1.040598e+00, -5.242559e-19, 2.186077e+01, -2.495518e-20
320, 5, 4.592487e+02, 5.984649e-40, 1.040598e+00, -5.242559e-19, 2.186077e+01, -2.495518e-20
320, 6, 4.592487e+02, 5.984649e-40, 1.040598e+00, -5.242559e-19, 2.186077e+01, -2.495518e-20
320, 7, 4.592487e+02, 5.984649e-40, 1.040598e+00, -5.242559e-19, 2.186077e+01, -2.495518e-20
320, 8, 4.592487e+02, 5.984649e-40, 1.040598e+00, -5.242559e-19, 2.186077e+01, -2.495518e-20
321, 1, 4.590642e+02, 6.002847e-40, 1.409034e+00, -5.249468e-19, 2.543299e+01, -2.908301e-20
321, 2, 4.590642e+02, 6.002847e-40, 1.409034e+00, -5.249468e-19, 2.543299e+01, -2.908301e-20
321, 3, 4.590642e+02, 6.002847e-40, 1.409034e+00, -5.249468e-19, 2.543299e+01, -2.908301e-20
321, 4, 4.590642e+02, 6.002847e-40, 1.409034e+00, -5.249468e-19, 2.543299e+01, -2.908301e-20
321, 5, 4.590642e+02, 6.002847e-40, 1.409034e+00, -5.249468e-19, 2.543299e+01, -2.908301e-20
321, 6, 4.590642e+02, 6.002847e-40, 1.409034e+00, -5.249468e-19, 2.543299e+01, -2.908301e-20
321, 7, 4.590642e+02, 6.002847e-40, 1.409034e+00, -5.249468e-19, 2.543299e+01, -2.908301e-20
321, 8, 4.590642e+02, 6.002847e-40, 1.409034e+00, -5.249468e-19, 2.543299e+01, -2.908301e-20
322, 1, 4.590176e+02, 5.984242e-40, 1.498188e+00, -5.241061e-19, 2.622393e+01, -2.994247e-20
322, 2, 4.590176e+02, 5.984242e-40, 1.498188e+00, -5.241061e-19, 2.622393e+01, -2.994247e-20
322, 3, 4.590176e+02, 5.984242e-40, 1.498188e+00, -5.241061e-19, 2.622393e+01, -2.994247e-20
322, 4, 4.590176e+02, 5.984242e-40, 1.498188e+00, -5.241061e-19, 2.622393e+01, -2.994247e-20
322, 5, 4.590176e+02, 5.984242e-40, 1.498188e+00, -5.241061e-19, 2.622393e+01, -2.994247e-20
322, 6, 4.590176e+02, 5.984242e-40, 1.498188e+00, -5.241061e-19, 2.622393e+01, -2.994247e-20
322, 7, 4.590176e+02, 5.984242e-40, 1.498188e+00, -5.241061e-19, 2.622393e+01, -2.994247e-20
322, 8, 4.590176e+02, 5.984242e-40, 1.498188e+00, -5.241061e-19, 2.622393e+01, -2.994247e-20
323, 1, 4.589486e+02, 5.985906e-40, 1.641231e+00, -5.241396e-19, 2.744523e+01, -3.134367e-20
323, 2, 4.589486e+02, 5.985906e-40, 1.641231e+00, -5.241396e-19, 2.744523e+01, -3.134367e-20
323, 3, 4.589486e+02, 5.985906e-40, 1.641231e+00, -5.241396e-19, 2.744523e+01, -3.134367e-20
323, 4, 4.589486e+02, 5.985906e-40, 1.641231e+00, -5.241396e-19, 2.744523e+01, -3.134367e-20
323, 5, 4.589486e+02, 5.985906e-40, 1.641231e+00, -5.241396e-19, 2.744523e+01, -3.134367e-20
323, 6, 4.589486e+02, 5.985906e-40, 1.641231e+00, -5.241396e-19, 2.744523e+01, -3.134367e-20
323, 7, 4.589486e+02, 5.985906e-40, 1.641231e+00, -5.241396e-19, 2.744523e+01, -3.134367e-20
323, 8, 4.589486e+02, 5.985906e-40, 1.641231e+00, -5.241396e-19, 2.744523e+01, -3.134367e-20
324, 1, 4.588730e+02, 5.984521e-40, 1.790768e+00, -5.240358e-19, 2.866593e+01, -3.273666e-20
324, 2, 4.588730e+02, 5.984521e-40, 1.790768e+00, -5.240358e-19, 2.866593e+01, -3.273666e-20
324, 3, 4.588730e+02, 5.984521e-40, 1.790768e+00, -5.240358e-19, 2.866593e+01, -3.273666e-20
324, 4, 4.588730e+02, 5.984521e-40, 1.790768e+00, -5.240358e-19, 2.866593e+01, -3.273666e-20
324, 5, 4.588730e+02, 5.984521e-40, 1.790768e+00, -5.240358e-19, 2.866593e+01, -3.273666e-20
324, 6, 4.588730e+02, 5.984521e-40, 1.790768e+00, -5.240358e-19, 2.866593e+01, -3.273666e-20
324, 7, 4.588730e+02, 5.984521e-40, 1.790768e+00, -5.240358e-19, 2.866593e+01, -3.273666e-20
324, 8, 4.588730e+02, 5.984521e-40, 1.790768e+00, -5.240358e-19, 2.866593e+01, -3.273666e-20
325, 1, 4.587932e+02, 5.982208e-40, 1.946804e+00, -5.238889e-19, 2.988613e+01, -3.412651e-20
325, 2, 4.587932e+02, 5.982208e-40, 1.946804e+00, -5.238889e-19, 2.988613e+01, -3.412651e-20
325, 3, 4.587932e+02, 5.982208e-40, 1.946804e+00, -5.238889e-19, 2.988613e+01, -3.412651e-20
325, 4, 4.587932e+02, 5.982208e-40, 1.946804e+00, -5.238889e-19, 2.988613e+01, -3.412651e-20
325, 5, 4.587932e+02, 5.982208e-40, 1.946804e+00, -5.238889e-19, 2.988613e+01, -3.412651e-20
325, 6, 4.587932e+02, 5.982208e-40, 1.946804e+00, -5.238889e-19, 2.988613e+01, -3.412651e-20
325, 7, 4.587932e+02, 5.982208e-40, 1.946804e+00, -5.238889e-19, 2.988613e+01, -3.412651e-20
325, 8, 4.587932e+02, 5.982208e-40, 1.946804e+00, -5.238889e-19, 2.988613e+01, -3.412651e-20
326, 1, 4.587136e+02, 5.980081e-40, 2.109355e+00, -5.237504e-19, 3.110611e+01, -3.551635e-20
326, 2, 4.587136e+02, 5.980081e-40, 2.109355e+00, -5.237504e-19, 3.110611e+01, -3.551635e-20
326, 3, 4.587136e+02, 5.980081e-40, 2.109355e+00, -5.237504e-19, 3.110611e+01, -3.551635e-20
326, 4, 4.587136e+02, 5.980081e-40, 2.109355e+00, -5.237504e-19, 3.110611e+01, -3.551635e-20
326, 5, 4.587136e+02, 5.980081e-40, 2.109355e+00, -5.237504e-19, 3.110611e+01, -3.551635e-20
326, 6, 4.587136e+02, 5.980081e-40, 2.109355e+00, -5.237504e-19, 3.110611e+01, -3.551635e-20
326, 7, 4.587136e+02, 5.980081e-40, 2.109355e+00, -5.237504e-19, 3.110611e+01, -3.551635e-20
326, 8, 4.587136e+02, 5.980081e-40, 2.109355e+00, -5.237504e-19, 3.110611e+01, -3.551635e-20
327, 1, 4.586503e+02, 5.963018e-40, 2.235480e+00, -5.229665e-19, 3.202036e+01, -3.651056e-20
327, 2, 4.586503e+02, 5.963018e-40, 2.235480e+00, -5.229665e-19, 3.202036e+01, -3.651056e-20
327, 3, 4.586503e+02, 5.963018e-40, 2.235480e+00, -5.229665e-19, 3.202036e+01, -3.651056e-20
327, 4, 4.586503e+02, 5.963018e-40, 2.235480e+00, -5.229665e-19, 3.202036e+01, -3.651056e-20
327, 5, 4.586503e+02, 5.963018e-40, 2.235480e+00, -5.229665e-19, 3.202036e+01, -3.651056e-20
327, 6, 4.586503e+02, 5.963018e-40, 2.235480e+00, -5.229665e-19, 3.202036e+01, -3.651056e-20
327, 7, 4.586503e+02, 5.963018e-40, 2.235480e+00, -5.229665e-19, 3.202036e+01, -3.651056e-20
327, 8, 4.586503e+02, 5.963018e-40, 2.235480e+00, -5.229665e-19, 3.202036e+01, -3.651056e-20
328, 1, 4.586014e+02, 5.967353e-40, 2.333717e+00, -5.231287e-19, 3.271461e+01, -3.731771e-20
328, 2, 4.586014e+02, 5.967353e-40, 2.333717e+00, -5.231287e-19, 3.271461e+01, -3.731771e-20
328, 3, 4.586014e+02, 5.967353e-40, 2.333717e+00, -5.231287e-19, 3.271461e+01, -3.731771e-20
328, 4, 4.586014e+02, 5.967353e-40, 2.333717e+00, -5.231287e-19, 3.271461e+01, -3.731771e-20
328, 5, 4.586014e+02, 5.967353e-40, 2.333717e+00, -5.231287e-19, 3.271461e+01, -3.731771e-20
328, 6, 4.586014e+02, 5.967353e-40, 2.333717e+00, -5.231287e-19, 3.271461e+01, -3.731771e-20
328, 7, 4.586014e+02, 5.967353e-40, 2.333717e+00, -5.231287e-19, 3.271461e+01, -3.731771e-20
328, 8, 4.586014e+02, 5.967353e-40, 2.333717e+00, -5.231287e-19, 3.271461e+01, -3.731771e-20
329, 1, 4.585299e+02, 5.980011e-40, 2.474729e+00, -5.236424e-19, 3.368586e+01, -3.846935e-20
329, 2, 4.585299e+02, 5.980011e-40, 2.474729e+00, -5.236424e-19, 3.368586e+01, -3.846935e-20
329, 3, 4.585299e+02, 5.980011e-40, 2.474729e+00, -5.236424e-19, 3.368586e+01, -3.846935e-20
329, 4, 4.585299e+02, 5.980011e-40, 2.474729e+00, -5.236424e-19, 3.368586e+01, -3.846935e-20
329, 5, 4.585299e+02, 5.980011e-40, 2.474729e+00, -5.236424e-19, 3.368586e+01, -3.846935e-20
329, 6, 4.585299e+02, 5.980011e-40, 2.474729e+00, -5.236424e-19, 3.368586e+01, -3.846935e-20
329, 7, 4.585299e+02, 5.980011e-40, 2.474729e+00, -5.236424e-19, 3.368586e+01, -3.846935e-20
329, 8, 4.585299e+02, 5.980011e-40, 2.474729e+00, -5.236424e-19, 3.368586e+01, -3.846935e-20
330, 1, 4.584390e+02, 5.979598e-40, 2.657513e+00, -5.235724e-19, 3.490426e+01, -3.986334e-20
330, 2, 4.584390e+02, 5.979598e-40, 2.657513e+00, -5.235724e-19, 3.490426e+01, -3.986334e-20
330, 3, 4.584390e+02, 5.979598e-40, 2.657513e+00, -5.235724e-19, 3.490426e+01, -3.986334e-20
330, 4, 4.584390e+02, 5.979598e-40, 2.657513e+00, -5.235724e-19, 3.490426e+01, -3.986334e-20
330, 5, 4.584390e+02, 5.979598e-40, 2.657513e+00, -5.235724e-19, 3.490426e+01, -3.986334e-20
330, 6, 4.584390e+02, 5.979598e-40, 2.657513e+00, -5.235724e-19, 3.490426e+01, -3.986334e-20
330, 7, 4.584390e+02, 5.979598e-40, 2.657513e+00, -5.235724e-19, 3.490426e+01, -3.986334e-20
330, 8, 4.584390e+02, 5.979598e-40, 2.657513e+00, -5.235724e-19, 3.490426e+01, -3.986334e-20
331, 1, 4.583462e+02, 5.978144e-40, 2.846793e+00, -5.234558e-19, 3.612225e+01, -4.125353e-20
331, 2, 4.583462e+02, 5.978144e-40, 2.846793e+00, -5.234558e-19, 3.612225e+01, -4.125353e-20
331, 3, 4.583462e+02, 5.978144e-40, 2.846793e+00, -5.234558e-19, 3.612225e+01, -4.125353e-20
331, 4, 4.583462e+02, 5.978144e-40, 2.846793e+00, -5.234558e-19, 3.612225e+01, -4.125353e-20
331, 5, 4.583462e+02, 5.978144e-40, 2.846793e+00, -5.234558e-19, 3.612225e+01, -4.125353e-20
331, 6, 4.583462e+02, 5.978144e-40, 2.846793e+00, -5.234558e-19, 3.612225e+01, -4.125353e-20
331, 7, 4.583462e+02, 5.978144e-40, 2.846793e+00, -5.234558e-19, 3.612225e+01, -4.125353e-20
331, 8, 4.583462e+02, 5.978144e-40, 2.846793e+00, -5.234558e-19, 3.612225e+01, -4.125353e-20
332, 1, 4.582491e+02, 5.976300e-40, 3.042553e+00, -5.233196e-19, 3.733962e+01, -4.264178e-20
332, 2, 4.582491e+02, 5.976300e-40, 3.042553e+00, -5.233196e-19, 3.733962e+01, -4.264178e-20
332, 3, 4.582491e+02, 5.976300e-40, 3.042553e+00, -5.233196e-19, 3.733962e+01, -4.264178e-20
332, 4, 4.582491e+02, 5.976300e-40, 3.042553e+00, -5.233196e-19, 3.733962e+01, -4.264178e-20
332, 5, 4.582491e+02, 5.976300e-40, 3.042553e+00, -5.233196e-19, 3.733962e+01, -4.264178e-20
332, 6, 4.582491e+02, 5.976300e-40, 3.042553e+00, -5.233196e-19, 3.733962e+01, -4.264178e-20
332, 7, 4.582491e+02, 5.976300e-40, 3.042553e+00, -5.233196e-19, 3.733962e+01, -4.264178e-20
332, 8, 4.582491e+02, 5.976300e-40, 3.042553e+00, -5.233196e-19, 3.733962e+01, -4.264178e-20
333, 1, 4.581478e+02, 5.973601e-40, 3.244788e+00, -5.231435e-19, 3.855635e+01, -4.402621e-20
333, 2, 4.581478e+02, 5.973601e-40, 3.244788e+00, -5.231435e-19, 3.855635e+01, -4.402621e-20
333, 3, 4.581478e+02, 5.973601e-40, 3.244788e+00, -5.231435e-19, 3.855635e+01, -4.402621e-20
333, 4, 4.581478e+02, 5.973601e-40, 3.244788e+00, -5.231435e-19, 3.855635e+01, -4.402621e-20
333, 5, 4.581478e+02, 5.973601e-40, 3.244788e+00, -5.231435e-19, 3.855635e+01, -4.402621e-20
333, 6, 4.581478e+02, 5.973601e-40, 3.244788e+00, -5.231435e-19, 3.855635e+01, -4.402621e-20
333, 7, 4.581478e+02, 5.973601e-40, 3.244788e+00, -5.231435e-19, 3.855635e+01, -4.402621e-20
333, 8, 4.581478e+02, 5.973601e-40, 3.244788e+00, -5.231435e-19, 3.855635e+01, -4.402621e-20
334, 1, 4.580848e+02, 5.992200e-40, 3.368300e+00, -5.239213e-19, 3.928062e+01, -4.492608e-20
334, 2, 4.580848e+02, 5.992200e-40, 3.368300e+00, -5.239213e-19, 3.928062e+01, -4.492608e-20
334, 3, 4.580848e+02, 5.992200e-40, 3.368300e+00, -5.239213e-19, 3.928062e+01, -4.492608e-20
334, 4, 4.580848e+02, 5.992200e-40, 3.368300e+00, -5.239213e-19, 3.928062e+01, -4.492608e-20
334, 5, 4.580848e+02, 5.992200e-40, 3.368300e+00, -5.239213e-19, 3.928062e+01, -4.492608e-20
334, 6, 4.580848e+02, 5.992200e-40, 3.368300e+00, -5.239213e-19, 3.928062e+01, -4.492608e-20
334, 7, 4.580848e+02, 5.992200e-40, 3.368300e+00, -5.239213e-19, 3.928062e+01, -4.492608e-20
334, 8, 4.580848e+02, 5.992200e-40, 3.368300e+00, -5.239213e-19, 3.928062e+01, -4.492608e-20
335, 1, 4.580246e+02, 5.969843e-40, 3.488986e+00, -5.229087e-19, 3.997551e+01, -4.563847e-20
335, 2, 4.580246e+02, 5.969843e-40, 3.488986e+00, -5.229087e-19, 3.997551e+01, -4.563847e-20
335, 3, 4.580246e+02, 5.969843e-40, 3.488986e+00, -5.229087e-19, 3.997551e+01, -4.563847e-20
335, 4, 4.580246e+02, 5.969843e-40, 3.488986e+00, -5.229087e-19, 3.997551e+01, -4.563847e-20
335, 5, 4.580246e+02, 5.969843e-40, 3.488986e+00, -5.229087e-19, 3.997551e+01, -4.563847e-20
335, 6, 4.580246e+02, 5.969843e-40, 3.488986e+00, -5.229087e-19, 3.997551e+01, -4.563847e-20
335, 7, 4.580246e+02, 5.969843e-40, 3.488986e+00, -5.229087e-19, 3.997551e+01, -4.563847e-20
335, 8, 4.580246e+02, 5.969843e-40, 3.488986e+00, -5.229087e-19, 3.997551e+01, -4.563847e-20
336, 1, 4.579249e+02, 5.970677e-40, 3.694084e+00, -5.228883e-19, 4.112923e+01, -4.696401e-20
336, 2, 4.579249e+02, 5.970677e-40, 3.694084e+00, -5.228883e-19, 4.112923e+01, -4.696401e-20
336, 3, 4.579249e+02, 5.970677e-40, 3.694084e+00, -5.228883e-19, 4.112923e+01, -4.696401e-20
336, 4, 4.579249e+02, 5.970677e-40, 3.694084e+00, -5.228883e-19, 4.112923e+01, -4.696401e-20
336, 5, 4.579249e+02, 5.970677e-40, 3.694084e+00, -5.228883e-19, 4.112923e+01, -4.696401e-20
336, 6, 4.579249e+02, 5.970677e-40, 3.694084e+00, -5.228883e-19, 4.112923e+01, -4.696401e-20
336, 7, 4.579249e+02, 5.970677e-40, 3.694084e+00, -5.228883e-19, 4.112923e+01, -4.696401e-20
336, 8, 4.579249e+02, 5.970677e-40, 3.694084e+00, -5.228883e-19, 4.112923e+01, -4.696401e-20
337, 1, 4.578124e+02, 5.969612e-40, 3.916485e+00, -5.227774e-19, 4.234401e+01, -4.835276e-20
337, 2, 4.578124e+02, 5.969612e-40, 3.916485e+00, -5.227774e-19, 4.234401e+01, -4.835276e-20
337, 3, 4.578124e+02, 5.969612e-40, 3.916485e+00, -5.227774e-19, 4.234401e+01, -4.835276e-20
337, 4, 4.578124e+02, 5.969612e-40, 3.916485e+00, -5.227774e-19, 4.234401e+01, -4.835276e-20
337, 5, 4.578124e+02, 5.969612e-40, 3.916485e+00, -5.227774e-19, 4.234401e+01, -4.835276e-20
337, 6, 4.578124e+02, 5.969612e-40, 3.916485e+00, -5.227774e-19, 4.234401e+01, -4.835276e-20
337, 7, 4.578124e+02, 5.969612e-40, 3.916485e+00, -5.227774e-19, 4.234401e+01, -4.835276e-20
337, 8, 4.578124e+02, 5.969612e-40, 3.916485e+00, -5.227774e-19, 4.234401e+01, -4.835276e-20
338, 1, 4.576979e+02, 5.967846e-40, 4.145361e+00, -5.226347e-19, 4.355827e+01, -4.973819e-20
338, 2, 4.576979e+02, 5.967846e-40, 4.145361e+00, -5.226347e-19, 4.355827e+01, -4.973819e-20
338, 3, 4.576979e+02, 5.967846e-40, 4.145361e+00, -5.226347e-19, 4.355827e+01, -4.973819e-20
338, 4, 4.576979e+02, 5.967846e-40, 4.145361e+00, -5.226347e-19, 4.355827e+01, -4.973819e-20
338, 5, 4.576979e+02, 5.967846e-40, 4.145361e+00, -5.226347e-19, 4.355827e+01, -4.973819e-20
338, 6, 4.576979e+02, 5.967846e-40, 4.145361e+00, -5.226347e-19, 4.355827e+01, -4.973819e-20
338, 7, 4.576979e+02, 5.967846e-40, 4.145361e+00, -5.226347e-19, 4.355827e+01, -4.973819e-20
338, 8, 4.576979e+02, 5.967846e-40, 4.145361e+00, -5.226347e-19, 4.355827e+01, -4.973819e-20
339, 1, 4.575836e+02, 5.965496e-40, 4.380734e+00, -5.224666e-19, 4.477222e+01, -5.112069e-20
339, 2, 4.575836e+02, 5.965496e-40, 4.380734e+00, -5.224666e-19, 4.477222e+01, -5.112069e-20
339, 3, 4.575836e+02, 5.965496e-40, 4.380734e+00, -5.224666e-19, 4.477222e+01, -5.112069e-20
339, 4, 4.575836e+02, 5.965496e-40, 4.380734e+00, -5.224666e-19, 4.477222e+01, -5.112069e-20
339, 5, 4.575836e+02, 5.965496e-40, 4.380734e+00, -5.224666e-19, 4.477222e+01, -5.112069e-20
339, 6, 4.575836e+02, 5.965496e-40, 4.380734e+00, -5.224666e-19, 4.477222e+01, -5.112069e-20
339, 7, 4.575836e+02, 5.965496e-40, 4.380734e+00, -5.224666e-19, 4.477222e+01, -5.112069e-20
339, 8, 4.575836e+02, 5.965496e-40, 4.380734e+00, -5.224666e-19, 4.477222e+01, -5.112069e-20
340, 1, 4.574607e+02, 5.967389e-40, 4.622514e+00, -5.224793e-19, 4.598498e+01, -5.252080e-20
340, 2, 4.574607e+02, 5.967389e-40, 4.622514e+00, -5.224793e-19, 4.598498e+01, -5.252080e-20
340, 3, 4.574607e+02, 5.967389e-40, 4.622514e+00, -5.224793e-19, 4.598498e+01, -5.252080e-20
340, 4, 4.574607e+02, 5.967389e-40, 4.622514e+00, -5.224793e-19, 4.598498e+01, -5.252080e-20
340, 5, 4.574607e+02, 5.967389e-40, 4.622514e+00, -5.224793e-19, 4.598498e+01, -5.252080e-20
340, 6, 4.574607e+02, 5.967389e-40, 4.622514e+00, -5.224793e-19, 4.598498e+01, -5.252080e-20
340, 7, 4.574607e+02, 5.967389e-40, 4.622514e+00, -5.224793e-19, 4.598498e+01, -5.252080e-20
340, 8, 4.574607e+02, 5.967389e-40, 4.622514e+00, -5.224793e-19, 4.598498e+01, -5.252080e-20
341, 1, 4.573818e+02, 5.981085e-40, 4.782098e+00, -5.230334e-19, 4.676798e+01, -5.348096e-20
341, 2, 4.573818e+02, 5.981085e-40, 4.782098e+00, -5.230334e-19, 4.676798e+01, -5.348096e-20
341, 3, 4.573818e+02, 5.981085e-40, 4.782098e+00, -5.230334e-19, 4.676798e+01, -5.348096e-20
341, 4, 4.573818e+02, 5.981085e-40, 4.782098e+00, -5.230334e-19, 4.676798e+01, -5.348096e-20
341, 5, 4.573818e+02, 5.981085e-40, 4.782098e+00, -5.230334e-19, 4.676798e+01, -5.348096e-20
341, 6, 4.573818e+02, 5.981085e-40, 4.782098e+00, -5.230334e-19, 4.676798e+01, -5.348096e-20
341, 7, 4.573818e+02, 5.981085e-40, 4.782098e+00, -5.230334e-19, 4.676798e+01, -5.348096e-20
341, 8, 4.573818e+02, 5.981085e-40, 4.782098e+00, -5.230334e-19, 4.676798e+01, -5.348096e-20
342, 1, 4.570086e+02, 5.956340e-40, 5.536500e+00, -5.217373e-19, 5.030137e+01, -5.742584e-20
342, 2, 4.570086e+02, 5.956340e-40, 5.536500e+00, -5.217373e-19, 5.030137e+01, -5.742584e-20
342, 3, 4.570086e+02, 5.956340e-40, 5.536500e+00, -5.217373e-19, 5.030137e+01, -5.742584e-20
342, 4, 4.570086e+02, 5.956340e-40, 5.536500e+00, -5.217373e-19, 5.030137e+01, -5.742584e-20
342, 5, 4.570086e+02, 5.956340e-40, 5.536500e+00, -5.217373e-19, 5.030137e+01, -5.742584e-20
342, 6, 4.570086e+02, 5.956340e-40, 5.536500e+00, -5.217373e-19, 5.030137e+01, -5.742584e-20
342, 7, 4.570086e+02, 5.956340e-40, 5.536500e+00, -5.217373e-19, 5.030137e+01, -5.742584e-20
342, 8, 4.570086e+02, 5.956340e-40, 5.536500e+00, -5.217373e-19, 5.030137e+01, -5.742584e-20
343, 1, 4.568864e+02, 5.959409e-40, 5.779798e+00, -5.218019e-19, 5.138785e+01, -5.868916e-20
343, 2, 4.568864e+02, 5.959409e-40, 5.779798e+00, -5.218019e-19, 5.138785e+01, -5.868916e-20
343, 3, 4.568864e+02, 5.959409e-40, 5.779798e+00, -5.218019e-19, 5.138785e+01, -5.868916e-20
343, 4, 4.568864e+02, 5.959409e-40, 5.779798e+00, -5.218019e-19, 5.138785e+01, -5.868916e-20
343, 5, 4.568864e+02, 5.959409e-40, 5.779798e+00, -5.218019e-19, 5.138785e+01, -5.868916e-20
343, 6, 4.568864e+02, 5.959409e-40, 5.779798e+00, -5.218019e-19, 5.138785e+01, -5.868916e-20
343, 7, 4.568864e+02, 5.959409e-40, 5.779798e+00, -5.218019e-19, 5.138785e+01, -5.868916e-20
343, 8, 4.568864e+02, 5.959409e-40, 5.779798e+00, -5.218019e-19, 5.138785e+01, -5.868916e-20
344, 1, 4.567484e+02, 5.955314e-40, 6.056802e+00, -5.215439e-19, 5.259691e+01, -6.005844e-20
344, 2, 4.567484e+02, 5.955314e-40, 6.056802e+00, -5.215439e-19, 5.259691e+01, -6.005844e-20
344, 3, 4.567484e+02, 5.955314e-40, 6.056802e+00, -5.215439e-19, 5.259691e+01, -6.005844e-20
344, 4, 4.567484e+02, 5.955314e-40, 6.056802e+00, -5.215439e-19, 5.259691e+01, -6.005844e-20
344, 5, 4.567484e+02, 5.955314e-40, 6.056802e+00, -5.215439e-19, 5.259691e+01, -6.005844e-20
344, 6, 4.567484e+02, 5.955314e-40, 6.056802e+00, -5.215439e-19, 5.259691e+01, -6.005844e-20
344, 7, 4.567484e+02, 5.955314e-40, 6.056802e+00, -5.215439e-19, 5.259691e+01, -6.005844e-20
344, 8, 4.567484e+02, 5.955314e-40, 6.056802e+00, -5.215439e-19, 5.259691e+01, -6.005844e-20
345, 1, 4.566084e+02, 5.955573e-40, 6.340254e+00, -5.214753e-19, 5.380533e+01, -6.144904e-20
345, 2, 4.566084e+02, 5.955573e-40, 6.340254e+00, -5.214753e-19, 5.380533e+01, -6.144904e-20
345, 3, 4.566084e+02, 5.955573e-40, 6.340254e+00, -5.214753e-19, 5.380533e+01, -6.144904e-20
345, 4, 4.566084e+02, 5.955573e-40, 6.340254e+00, -5.214753e-19, 5.380533e+01, -6.144904e-20
345, 5, 4.566084e+02, 5.955573e-40, 6.340254e+00, -5.214753e-19, 5.380533e+01, -6.144904e-20
345, 6, 4.566084e+02, 5.955573e-40, 6.340254e+00, -5.214753e-19, 5.380533e+01, -6.144904e-20
345, 7, 4.566084e+02, 5.955573e-40, 6.340254e+00, -5.214753e-19, 5.380533e+01, -6.144904e-20
345, 8, 4.566084e+02, 5.955573e-40, 6.340254e+00, -5.214753e-19, 5.380533e+01, -6.144904e-20
346, 1, 4.564643e+02, 5.954743e-40, 6.630120e+00, -5.213567e-19, 5.501284e+01, -6.283364e-20
346, 2, 4.564643e+02, 5.954743e-40, 6.630120e+00, -5.213567e-19, 5.501284e+01, -6.283364e-20
346, 3, 4.564643e+02, 5.954743e-40, 6.630120e+00, -5.213567e-19, 5.501284e+01, -6.283364e-20
346, 4, 4.564643e+02, 5.954743e-40, 6.630120e+00, -5.213567e-19, 5.501284e+01, -6.283364e-20
346, 5, 4.564643e+02, 5.954743e-40, 6.630120e+00, -5.213567e-19, 5.501284e+01, -6.283364e-20
346, 6, 4.564643e+02, 5.954743e-40, 6.630120e+00, -5.213567e-19, 5.501284e+01, -6.283364e-20
346, 7, 4.564643e+02, 5.954743e-40, 6.630120e+00, -5.213567e-19, 5.501284e+01, -6.283364e-20
346, 8, 4.564643e+02, 5.954743e-40, 6.630120e+00, -5.213567e-19, 5.501284e+01, -6.283364e-20
347, 1, 4.563242e+02, 5.950515e-40, 6.911510e+00, -5.210916e-19, 5.615950e+01, -6.413037e-20
347, 2, 4.563242e+02, 5.950515e-40, 6.911510e+00, -5.210916e-19, 5.615950e+01, -6.413037e-20
347, 3, 4.563242e+02, 5.950515e-40, 6.911510e+00, -5.210916e-19, 5.615950e+01, -6.413037e-20
347, 4, 4.563242e+02, 5.950515e-40, 6.911510e+00, -5.210916e-19, 5.615950e+01, -6.413037e-20
347, 5, 4.563242e+02, 5.950515e-40, 6.911510e+00, -5.210916e-19, 5.615950e+01, -6.413037e-20
347, 6, 4.563242e+02, 5.950515e-40, 6.911510e+00, -5.210916e-19, 5.615950e+01, -6.413037e-20
347, 7, 4.563242e+02, 5.950515e-40, 6.911510e+00, -5.210916e-19, 5.615950e+01, -6.413037e-20
347, 8, 4.563242e+02, 5.950515e-40, 6.911510e+00, -5.210916e-19, 5.615950e+01, -6.413037e-20
348, 1, 4.562386e+02, 5.967198e-40, 7.082304e+00, -5.217726e-19, 5.684383e+01, -6.500885e-20
348, 2, 4.562386e+02, 5.967198e-40, 7.082304e+00, -5.217726e-19, 5.684383e+01, -6.500885e-20
348, 3, 4.562386e+02, 5.967198e-40, 7.082304e+00, -5.217726e-19, 5.684383e+01, -6.500885e-20
348, 4, 4.562386e+02, 5.967198e-40, 7.082304e+00, -5.217726e-19, 5.684383e+01, -6.500885e-20
348, 5, 4.562386e+02, 5.967198e-40, 7.082304e+00, -5.217726e-19, 5.684383e+01, -6.500885e-20
348, 6, 4.562386e+02, 5.967198e-40, 7.082304e+00, -5.217726e-19, 5.684383e+01, -6.500885e-20
348, 7, 4.562386e+02, 5.967198e-40, 7.082304e+00, -5.217726e-19, 5.684383e+01, -6.500885e-20
348, 8, 4.562386e+02, 5.967198e-40, 7.082304e+00, -5.217726e-19, 5.684383e+01, -6.500885e-20
349, 1, 4.561505e+02, 5.949985e-40, 7.264531e+00, -5.209692e-19, 5.756492e+01, -6.574485e-20
349, 2, 4.561505e+02, 5.949985e-40, 7.264531e+00, -5.209692e-19, 5.756492e+01, -6.574485e-20
349, 3, 4.561505e+02, 5.949985e-40, 7.264531e+00, -5.209692e-19, 5.756492e+01, -6.574485e-20
349, 4, 4.561505e+02, 5.949985e-40, 7.264531e+00, -5.209692e-19, 5.756492e+01, -6.574485e-20
349, 5, 4.561505e+02, 5.949985e-40, 7.264531e+00, -5.209692e-19, 5.756492e+01, -6.574485e-20
349, 6, 4.561505e+02, 5.949985e-40, 7.264531e+00, -5.209692e-19, 5.756492e+01, -6.574485e-20
349, 7, 4.561505e+02, 5.949985e-40, 7.264531e+00, -5.209692e-19, 5.756492e+01, -6.574485e-20
349, 8, 4.561505e+02, 5.949985e-40, 7.264531e+00, -5.209692e-19, 5.756492e+01, -6.574485e-20
350, 1, 4.559954e+02, 5.947126e-40, 7.574370e+00, -5.207555e-19, 5.876970e+01, -6.711612e-20
350, 2, 4.559954e+02, 5.947126e-40, 7.574370e+00, -5.207555e-19, 5.876970e+01, -6.711612e-20
350, 3, 4.559954e+02, 5.947126e-40, 7.574370e+00, -5.207555e-19, 5.876970e+01, -6.711612e-20
350, 4, 4.559954e+02, 5.947126e-40, 7.574370e+00, -5.207555e-19, 5.876970e+01, -6.711612e-20
350, 5, 4.559954e+02, 5.947126e-40, 7.574370e+00, -5.207555e-19, 5.876970e+01, -6.711612e-20
350, 6, 4.559954e+02, 5.947126e-40, 7.574370e+00, -5.207555e-19, 5.876970e+01, -6.711612e-20
350, 7, 4.559954e+02, 5.947126e-40, 7.574370e+00, -5.207555e-19, 5.876970e+01, -6.711612e-20
350, 8, 4.559954e+02, 5.947126e-40, 7.574370e+00, -5.207555e-19, 5.876970e+01, -6.711612e-20
351, 1, 4.558384e+02, 5.945539e-40, 7.890635e+00, -5.205963e-19, 5.997378e+01, -6.849385e-20
351, 2, 4.558384e+02, 5.945539e-40, 7.890635e+00, -5.205963e-19, 5.997378e+01, -6.849385e-20
351, 3, 4.558384e+02, 5.945539e-40, 7.890635e+00, -5.205963e-19, 5.997378e+01, -6.849385e-20
351, 4, 4.558384e+02, 5.945539e-40, 7.890635e+00, -5.205963e-19, 5.997378e+01, -6.849385e-20
351, 5, 4.558384e+02, 5.945539e-40, 7.890635e+00, -5.205963e-19, 5.997378e+01, -6.849385e-20
351, 6, 4.558384e+02, 5.945539e-40, 7.890635e+00, -5.205963e-19, 5.997378e+01, -6.849385e-20
351, 7, 4.558384e+02, 5.945539e-40, 7.890635e+00, -5.205963e-19, 5.997378e+01, -6.849385e-20
351, 8, 4.558384e+02, 5.945539e-40, 7.890635e+00, -5.205963e-19, 5.997378e+01, -6.849385e-20
352, 1, 4.556772e+02, 5.943315e-40, 8.213282e+00, -5.204068e-19, 6.117683e+01, -6.986710e-20
352, 2, 4.556772e+02, 5.943315e-40, 8.213282e+00, -5.204068e-19, 6.117683e+01, -6.986710e-20
352, 3, 4.556772e+02, 5.943315e-40, 8.213282e+00, -5.204068e-19, 6.117683e+01, -6.986710e-20
352, 4, 4.556772e+02, 5.943315e-40, 8.213282e+00, -5.204068e-19, 6.117683e+01, -6.986710e-20
352, 5, 4.556772e+02, 5.943315e-40, 8.213282e+00, -5.204068e-19, 6.117683e+01, -6.986710e-20
352, 6, 4.556772e+02, 5.943315e-40, 8.213282e+00, -5.204068e-19, 6.117683e+01, -6.986710e-20
352, 7, 4.556772e+02, 5.943315e-40, 8.213282e+00, -5.204068e-19, 6.117683e+01, -6.986710e-20
352, 8, 4.556772e+02, 5.943315e-40, 8.213282e+00, -5.204068e-19, 6.117683e+01, -6.986710e-20
353, 1, 4.555162e+02, 5.940071e-40, 8.542387e+00, -5.201729e-19, 6.237945e+01, -7.123369e-20
353, 2, 4.555162e+02, 5.940071e-40, 8.542387e+00, -5.201729e-19, 6.237945e+01, -7.123369e-20
353, 3, 4.555162e+02, 5.940071e-40, 8.542387e+00, -5.201729e-19, 6.237945e+01, -7.123369e-20
353, 4, 4.555162e+02, 5.940071e-40, 8.542387e+00, -5.201729e-19, 6.237945e+01, -7.123369e-20
353, 5, 4.555162e+02, 5.940071e-40, 8.542387e+00, -5.201729e-19, 6.237945e+01, -7.123369e-20
353, 6, 4.555162e+02, 5.940071e-40, 8.542387e+00, -5.201729e-19, 6.237945e+01, -7.123369e-20
353, 7, 4.555162e+02, 5.940071e-40, 8.542387e+00, -5.201729e-19, 6.237945e+01, -7.123369e-20
353, 8, 4.555162e+02, 5.940071e-40, 8.542387e+00, -5.201729e-19, 6.237945e+01, -7.123369e-20
354, 1, 4.553829e+02, 5.931682e-40, 8.810291e+00, -5.197294e-19, 6.334079e+01, -7.229097e-20
354, 2, 4.553829e+02, 5.931682e-40, 8.810291e+00, -5.197294e-19, 6.334079e+01, -7.229097e-20
354, 3, 4.553829e+02, 5.931682e-40, 8.810291e+00, -5.197294e-19, 6.334079e+01, -7.229097e-20
354, 4, 4.553829e+02, 5.931682e-40, 8.810291e+00, -5.197294e-19, 6.334079e+01, -7.229097e-20
354, 5, 4.553829e+02, 5.931682e-40, 8.810291e+00, -5.197294e-19, 6.334079e+01, -7.229097e-20
354, 6, 4.553829e+02, 5.931682e-40, 8.810291e+00, -5.197294e-19, 6.334079e+01, -7.229097e-20
354, 7, 4.553829e+02, 5.931682e-40, 8.810291e+00, -5.197294e-19, 6.334079e+01, -7.229097e-20
354, 8, 4.553829e+02, 5.931682e-40, 8.810291e+00, -5.197294e-19, 6.334079e+01, -7.229097e-20
355, 1, 4.552874e+02, 5.955458e-40, 9.002220e+00, -5.207153e-19, 6.402029e+01, -7.322045e-20
355, 2, 4.552874e+02, 5.955458e-40, 9.002220e+00, -5.207153e-19, 6.402029e+01, -7.322045e-20
355, 3, 4.552874e+02, 5.955458e-40, 9.002220e+00, -5.207153e-19, 6.402029e+01, -7.322045e-20
355, 4, 4.552874e+02, 5.955458e-40, 9.002220e+00, -5.207153e-19, 6.402029e+01, -7.322045e-20
355, 5, 4.552874e+02, 5.955458e-40, 9.002220e+00, -5.207153e-19, 6.402029e+01, -7.322045e-20
355, 6, 4.552874e+02, 5.955458e-40, 9.002220e+00, -5.207153e-19, 6.402029e+01, -7.322045e-20
355, 7, 4.552874e+02, 5.955458e-40, 9.002220e+00, -5.207153e-19, 6.402029e+01, -7.322045e-20
355, 8, 4.552874e+02, 5.955458e-40, 9.002220e+00, -5.207153e-19, 6.402029e+01, -7.322045e-20
356, 1, 4.551601e+02, 5.938056e-40, 9.259514e+00, -5.198813e-19, 6.491965e+01, -7.415087e-20
356, 2, 4.551601e+02, 5.938056e-40, 9.259514e+00, -5.198813e-19, 6.491965e+01, -7.415087e-20
356, 3, 4.551601e+02, 5.938056e-40, 9.259514e+00, -5.198813e-19, 6.491965e+01, -7.415087e-20
356, 4, 4.551601e+02, 5.938056e-40, 9.259514e+00, -5.198813e-19, 6.491965e+01, -7.415087e-20
356, 5, 4.551601e+02, 5.938056e-40, 9.259514e+00, -5.198813e-19, 6.491965e+01, -7.415087e-20
356, 6, 4.551601e+02, 5.938056e-40, 9.259514e+00, -5.198813e-19, 6.491965e+01, -7.415087e-20
356, 7, 4.551601e+02, 5.938056e-40, 9.259514e+00, -5.198813e-19, 6.491965e+01, -7.415087e-20
356, 8, 4.551601e+02, 5.938056e-40, 9.259514e+00, -5.198813e-19, 6.491965e+01, -7.415087e-20
357, 1, 4.549883e+02, 5.936903e-40, 9.608491e+00, -5.197328e-19, 6.611922e+01, -7.552793e-20
357, 2, 4.549883e+02, 5.936903e-40, 9.608491e+00, -5.197328e-19, 6.611922e+01, -7.552793e-20
357, 3, 4.549883e+02, 5.936903e-40, 9.608491e+00, -5.197328e-19, 6.611922e+01, -7.552793e-20
357, 4, 4.549883e+02, 5.936903e-40, 9.608491e+00, -5.197328e-19, 6.611922e+01, -7.552793e-20
357, 5, 4.549883e+02, 5.936903e-40, 9.608491e+00, -5.197328e-19, 6.611922e+01, -7.552793e-20
357, 6, 4.549883e+02, 5.936903e-40, 9.608491e+00, -5.197328e-19, 6.611922e+01, -7.552793e-20
357, 7, 4.549883e+02, 5.936903e-40, 9.608491e+00, -5.197328e-19, 6.611922e+01, -7.552793e-20
357, 8, 4.549883e+02, 5.936903e-40, 9.608491e+00, -5.197328e-19, 6.611922e+01, -7.552793e-20
358, 1, 4.548123e+02, 5.932107e-40, 9.963821e+00, -5.194223e-19, 6.731767e+01, -7.688072e-20
358, 2, 4.548123e+02, 5.932107e-40, 9.963821e+00, -5.194223e-19, 6.731767e+01, -7.688072e-20
358, 3, 4.548123e+02, 5.932107e-40, 9.963821e+00, -5.194223e-19, 6.731767e+01, -7.688072e-20
358, 4, 4.548123e+02, 5.932107e-40, 9.963821e+00, -5.194223e-19, 6.731767e+01, -7.688072e-20
358, 5, 4.548123e+02, 5.932107e-40, 9.963821e+00, -5.194223e-19, 6.731767e+01, -7.688072e-20
358, 6, 4.548123e+02, 5.932107e-40, 9.963821e+00, -5.194223e-19, 6.731767e+01, -7.688072e-20
358, 7, 4.548123e+02, 5.932107e-40, 9.963821e+00, -5.194223e-19, 6.731767e+01, -7.688072e-20
358, 8, 4.548123e+02, 5.932107e-40, 9.963821e+00, -5.194223e-19, 6.731767e+01, -7.688072e-20
359, 1, 4.546323e+02, 5.931316e-40, 1.032550e+01, -5.192848e-19, 6.851499e+01, -7.825840e-20
359, 2, 4.546323e+02, 5.931316e-40, 1.032550e+01, -5.192848e-19, 6.851499e+01, -7.825840e-20
359, 3, 4.546323e+02, 5.931316e-40, 1.032550e+01, -5.192848e-19, 6.851499e+01, -7.825840e-20
359, 4, 4.546323e+02, 5.931316e-40, 1.032550e+01, -5.192848e-19, 6.851499e+01, -7.825840e-20
359, 5, 4.546323e+02, 5.931316e-40, 1.032550e+01, -5.192848e-19, 6.851499e+01, -7.825840e-20
359, 6, 4.546323e+02, 5.931316e-40, 1.032550e+01, -5.192848e-19, 6.851499e+01, -7.825840e-20
359, 7, 4.546323e+02, 5.931316e-40, 1.032550e+01, -5.192848e-19, 6.851499e+01, -7.825840e-20
359, 8, 4.546323e+02, 5.931316e-40, 1.032550e+01, -5.192848e-19, 6.851499e+01, -7.825840e-20
360, 1, 4.544503e+02, 5.929416e-40, 1.069356e+01, -5.190978e-19, 6.971149e+01, -7.962824e-20
360, 2, 4.544503e+02, 5.929416e-40, 1.069356e+01, -5.190978e-19, 6.971149e+01, -7.962824e-20
360, 3, 4.544503e+02, 5.929416e-40, 1.069356e+01, -5.190978e-19, 6.971149e+01, -7.962824e-20
360, 4, 4.544503e+02, 5.929416e-40, 1.069356e+01, -5.190978e-19, 6.971149e+01, -7.962824e-20
360, 5, 4.544503e+02, 5.929416e-40, 1.069356e+01, -5.190978e-19, 6.971149e+01, -7.962824e-20
360, 6, 4.544503e+02, 5.929416e-40, 1.069356e+01, -5.190978e-19, 6.971149e+01, -7.962824e-20
360, 7, 4.544503e+02, 5.929416e-40, 1.069356e+01, -5.190978e-19, 6.971149e+01, -7.962824e-20
360, 8, 4.544503e+02, 5.929416e-40, 1.069356e+01, -5.190978e-19, 6.971149e+01, -7.962824e-20
361, 1, 4.538015e+02, 5.921128e-40, 1.201059e+01, -5.183644e-19, 7.382698e+01, -8.433044e-20
361, 2, 4.538015e+02, 5.921128e-40, 1.201059e+01, -5.183644e-19, 7.382698e+01, -8.433044e-20
361, 3, 4.538015e+02, 5.921128e-40, 1.201059e+01, -5.183644e-19, 7.382698e+01, -8.433044e-20
361, 4, 4.538015e+02, 5.921128e-40, 1.201059e+01, -5.183644e-19, 7.382698e+01, -8.433044e-20
361, 5, 4.538015e+02, 5.921128e-40, 1.201059e+01, -5.183644e-19, 7.382698e+01, -8.433044e-20
361, 6, 4.538015e+02, 5.921128e-40, 1.201059e+01, -5.183644e-19, 7.382698e+01, -8.433044e-20
361, 7, 4.538015e+02, 5.921128e-40, 1.201059e+01, -5.183644e-19, 7.382698e+01, -8.433044e-20
361, 8, 4.538015e+02, 5.921128e-40, 1.201059e+01, -5.183644e-19, 7.382698e+01, -8.433044e-20
362, 1, 4.536048e+02, 5.918564e-40, 1.240683e+01, -5.181398e-19, 7.501866e+01, -8.569168e-20
362, 2, 4.536048e+02, 5.918564e-40, 1.240683e+01, -5.181398e-19, 7.501866e+01, -8.569168e-20
362, 3, 4.536048e+02, 5.918564e-40, 1.240683e+01, -5.181398e-19, 7.501866e+01, -8.569168e-20
362, 4, 4.536048e+02, 5.918564e-40, 1.240683e+01, -5.181398e-19, 7.501866e+01, -8.569168e-20
362, 5, 4.536048e+02, 5.918564e-40, 1.240683e+01, -5.181398e-19, 7.501866e+01, -8.569168e-20
362, 6, 4.536048e+02, 5.918564e-40, 1.240683e+01, -5.181398e-19, 7.501866e+01, -8.569168e-20
362, 7, 4.536048e+02, 5.918564e-40, 1.240683e+01, -5.181398e-19, 7.501866e+01, -8.569168e-20
362, 8, 4.536048e+02, 5.918564e-40, 1.240683e+01, -5.181398e-19, 7.501866e+01, -8.569168e-20
363, 1, 4.534063e+02, 5.914602e-40, 1.280944e+01, -5.178530e-19, 7.620945e+01, -8.704179e-20
363, 2, 4.534063e+02, 5.914602e-40, 1.280944e+01, -5.178530e-19, 7.620945e+01, -8.704179e-20
363, 3, 4.534063e+02, 5.914602e-40, 1.280944e+01, -5.178530e-19, 7.620945e+01, -8.704179e-20
363, 4, 4.534063e+02, 5.914602e-40, 1.280944e+01, -5.178530e-19, 7.620945e+01, -8.704179e-20
363, 5, 4.534063e+02, 5.914602e-40, 1.280944e+01, -5.178530e-19, 7.620945e+01, -8.704179e-20
363, 6, 4.534063e+02, 5.914602e-40, 1.280944e+01, -5.178530e-19, 7.620945e+01, -8.704179e-20
363, 7, 4.534063e+02, 5.914602e-40, 1.280944e+01, -5.178530e-19, 7.620945e+01, -8.704179e-20
363, 8, 4.534063e+02, 5.914602e-40, 1.280944e+01, -5.178530e-19, 7.620945e+01, -8.704179e-20
364, 1, 4.532058e+02, 5.914120e-40, 1.321840e+01, -5.177174e-19, 7.739933e+01, -8.841674e-20
364, 2, 4.532058e+02, 5.914120e-40, 1.321840e+01, -5.177174e-19, 7.739933e+01, -8.841674e-20
364, 3, 4.532058e+02, 5.914120e-40, 1.321840e+01, -5.177174e-19, 7.739933e+01, -8.841674e-20
364, 4, 4.532058e+02, 5.914120e-40, 1.321840e+01, -5.177174e-19, 7.739933e+01, -8.841674e-20
364, 5, 4.532058e+02, 5.914120e-40, 1.321840e+01, -5.177174e-19, 7.739933e+01, -8.841674e-20
364, 6, 4.532058e+02, 5.914120e-40, 1.321840e+01, -5.177174e-19, 7.739933e+01, -8.841674e-20
364, 7, 4.532058e+02, 5.914120e-40, 1.321840e+01, -5.177174e-19, 7.739933e+01, -8.841674e-20
364, 8, 4.532058e+02, 5.914120e-40, 1.321840e+01, -5.177174e-19, 7.739933e+01, -8.841674e-20
365, 1, 4.530014e+02, 5.912105e-40, 1.363365e+01, -5.175125e-19, 7.858792e+01, -8.977949e-20
365, 2, 4.530014e+02, 5.912105e-40, 1.363365e+01, -5.175125e-19, 7.858792e+01, -8.977949e-20
365, 3, 4.530014e+02, 5.912105e-40, 1.363365e+01, -5.175125e-19, 7.858792e+01, -8.977949e-20
365, 4, 4.530014e+02, 5.912105e-40, 1.363365e+01, -5.175125e-19, 7.858792e+01, -8.977949e-20
365, 5, 4.530014e+02, 5.912105e-40, 1.363365e+01, -5.175125e-19, 7.858792e+01, -8.977949e-20
365, 6, 4.530014e+02, 5.912105e-40, 1.363365e+01, -5.175125e-19, 7.858792e+01, -8.977949e-20
365, 7, 4.530014e+02, 5.912105e-40, 1.363365e+01, -5.175125e-19, 7.858792e+01, -8.977949e-20
365, 8, 4.530014e+02, 5.912105e-40, 1.363365e+01, -5.175125e-19, 7.858792e+01, -8.977949e-20
366, 1, 4.527928e+02, 5.908636e-40, 1.405518e+01, -5.172415e-19, 7.977520e+01, -9.113008e-20
366, 2, 4.527928e+02, 5.908636e-40, 1.405518e+01, -5.172415e-19, 7.977520e+01, -9.113008e-20
366, 3, 4.527928e+02, 5.908636e-40, 1.405518e+01, -5.172415e-19, 7.977520e+01, -9.113008e-20
366, 4, 4.527928e+02, 5.908636e-40, 1.405518e+01, -5.172415e-19, 7.977520e+01, -9.113008e-20
366, 5, 4.527928e+02, 5.908636e-40, 1.405518e+01, -5.172415e-19, 7.977520e+01, -9.113008e-20
366, 6, 4.527928e+02, 5.908636e-40, 1.405518e+01, -5.172415e-19, 7.977520e+01, -9.113008e-20
366, 7, 4.527928e+02, 5.908636e-40, 1.405518e+01, -5.172415e-19, 7.977520e+01, -9.113008e-20
366, 8, 4.527928e+02, 5.908636e-40, 1.405518e+01, -5.172415e-19, 7.977520e+01, -9.113008e-20
367, 1, 4.526463e+02, 5.918917e-40, 1.435199e+01, -5.176076e-19, 8.060008e+01, -9.216736e-20
367, 2, 4.526463e+02, 5.918917e-40, 1.435199e+01, -5.176076e-19, 8.060008e+01, -9.216736e-20
367, 3, 4.526463e+02, 5.918917e-40, 1.435199e+01, -5.176076e-19, 8.060008e+01, -9.216736e-20
367, 4, 4.526463e+02, 5.918917e-40, 1.435199e+01, -5.176076e-19, 8.060008e+01, -9.216736e-20
367, 5, 4.526463e+02, 5.918917e-40, 1.435199e+01, -5.176076e-19, 8.060008e+01, -9.216736e-20
367, 6, 4.526463e+02, 5.918917e-40, 1.435199e+01, -5.176076e-19, 8.060008e+01, -9.216736e-20
367, 7, 4.526463e+02, 5.918917e-40, 1.435199e+01, -5.176076e-19, 8.060008e+01, -9.216736e-20
367, 8, 4.526463e+02, 5.918917e-40, 1.435199e+01, -5.176076e-19, 8.060008e+01, -9.216736e-20
368, 1, 4.525252e+02, 5.900055e-40, 1.459865e+01, -5.167130e-19, 8.127887e+01, -9.280777e-20
368, 2, 4.525252e+02, 5.900055e-40, 1.459865e+01, -5.167130e-19, 8.127887e+01, -9.280777e-20
368, 3, 4.525252e+02, 5.900055e-40, 1.459865e+01, -5.167130e-19, 8.127887e+01, -9.280777e-20
368, 4, 4.525252e+02, 5.900055e-40, 1.459865e+01, -5.167130e-19, 8.127887e+01, -9.280777e-20
368, 5, 4.525252e+02, 5.900055e-40, 1.459865e+01, -5.167130e-19, 8.127887e+01, -9.280777e-20
368, 6, 4.525252e+02, 5.900055e-40, 1.459865e+01, -5.167130e-19, 8.127887e+01, -9.280777e-20
368, 7, 4.525252e+02, 5.900055e-40, 1.459865e+01, -5.167130e-19, 8.127887e+01, -9.280777e-20
368, 8, 4.525252e+02, 5.900055e-40, 1.459865e+01, -5.167130e-19, 8.127887e+01, -9.280777e-20
369, 1, 4.523447e+02, 5.902364e-40, 1.496742e+01, -5.167111e-19, 8.228266e+01, -9.399105e-20
369, 2, 4.523447e+02, 5.902364e-40, 1.496742e+01, -5.167111e-19, 8.228266e+01, -9.399105e-20
369, 3, 4.523447e+02, 5.902364e-40, 1.496742e+01, -5.167111e-19, 8.228266e+01, -9.399105e-20
369, 4, 4.523447e+02, 5.902364e-40, 1.496742e+01, -5.167111e-19, 8.228266e+01, -9.399105e-20
369, 5, 4.523447e+02, 5.902364e-40, 1.496742e+01, -5.167111e-19, 8.228266e+01, -9.399105e-20
369, 6, 4.523447e+02, 5.902364e-40, 1.496742e+01, -5.167111e-19, 8.228266e+01, -9.399105e-20
369, 7, 4.523447e+02, 5.902364e-40, 1.496742e+01, -5.167111e-19, 8.228266e+01, -9.399105e-20
369, 8, 4.523447e+02, 5.902364e-40, 1.496742e+01, -5.167111e-19, 8.228266e+01, -9.399105e-20
370, 1, 4.521256e+02, 5.899931e-40, 1.540851e+01, -5.164794e-19, 8.346607e+01, -9.534630e-20
370, 2, 4.521256e+02, 5.899931e-40, 1.540851e+01, -5.164794e-19, 8.346607e+01, -9.534630e-20
370, 3, 4.521256e+02, 5.899931e-40, 1.540851e+01, -5.164794e-19, 8.346607e+01, -9.534630e-20
370, 4, 4.521256e+02, 5.899931e-40, 1.540851e+01, -5.164794e-19, 8.346607e+01, -9.534630e-20
370, 5, 4.521256e+02, 5.899931e-40, 1.540851e+01, -5.164794e-19, 8.346607e+01, -9.534630e-20
370, 6, 4.521256e+02, 5.899931e-40, 1.540851e+01, -5.164794e-19, 8.346607e+01, -9.534630e-20
370, 7, 4.521256e+02, 5.899931e-40, 1.540851e+01, -5.164794e-19, 8.346607e+01, -9.534630e-20
370, 8, 4.521256e+02, 5.899931e-40, 1.540851e+01, -5.164794e-19, 8.346607e+01, -9.534630e-20
371, 1, 4.519069e+02, 5.895520e-40, 1.585600e+01, -5.161614e-19, 8.464889e+01, -9.668472e-20
371, 2, 4.519069e+02, 5.895520e-40, 1.585600e+01, -5.161614e-19, 8.464889e+01, -9.668472e-20
371, 3, 4.519069e+02, 5.895520e-40, 1.585600e+01, -5.161614e-19, 8.464889e+01, -9.668472e-20
371, 4, 4.519069e+02, 5.895520e-40, 1.585600e+01, -5.161614e-19, 8.464889e+01, -9.668472e-20
371, 5, 4.519069e+02, 5.895520e-40, 1.585600e+01, -5.161614e-19, 8.464889e+01, -9.668472e-20
371, 6, 4.519069e+02, 5.895520e-40, 1.585600e+01, -5.161614e-19, 8.464889e+01, -9.668472e-20
371, 7, 4.519069e+02, 5.895520e-40, 1.585600e+01, -5.161614e-19, 8.464889e+01, -9.668472e-20
371, 8, 4.519069e+02, 5.895520e-40, 1.585600e+01, -5.161614e-19, 8.464889e+01, -9.668472e-20
372, 1, 4.516841e+02, 5.894484e-40, 1.630972e+01, -5.159888e-19, 8.583030e+01, -9.804967e-20
372, 2, 4.516841e+02, 5.894484e-40, 1.630972e+01, -5.159888e-19, 8.583030e+01, -9.804967e-20
372, 3, 4.516841e+02, 5.894484e-40, 1.630972e+01, -5.159888e-19, 8.583030e+01, -9.804967e-20
372, 4, 4.516841e+02, 5.894484e-40, 1.630972e+01, -5.159888e-19, 8.583030e+01, -9.804967e-20
372, 5, 4.516841e+02, 5.894484e-40, 1.630972e+01, -5.159888e-19, 8.583030e+01, -9.804967e-20
372, 6, 4.516841e+02, 5.894484e-40, 1.630972e+01, -5.159888e-19, 8.583030e+01, -9.804967e-20
372, 7, 4.516841e+02, 5.894484e-40, 1.630972e+01, -5.159888e-19, 8.583030e+01, -9.804967e-20
372, 8, 4.516841e+02, 5.894484e-40, 1.630972e+01, -5.159888e-19, 8.583030e+01, -9.804967e-20
373, 1, 4.514595e+02, 5.891634e-40, 1.676975e+01, -5.157358e-19, 8.701071e+01, -9.939881e-20
373, 2, 4.514595e+02, 5.891634e-40, 1.676975e+01, -5.157358e-19, 8.701071e+01, -9.939881e-20
373, 3, 4.514595e+02, 5.891634e-40, 1.676975e+01, -5.157358e-19, 8.701071e+01, -9.939881e-20
373, 4, 4.514595e+02, 5.891634e-40, 1.676975e+01, -5.157358e-19, 8.701071e+01, -9.939881e-20
373, 5, 4.514595e+02, 5.891634e-40, 1.676975e+01, -5.157358e-19, 8.701071e+01, -9.939881e-20
373, 6, 4.514595e+02, 5.891634e-40, 1.676975e+01, -5.157358e-19, 8.701071e+01, -9.939881e-20
373, 7, 4.514595e+02, 5.891634e-40, 1.676975e+01, -5.157358e-19, 8.701071e+01, -9.939881e-20
373, 8, 4.514595e+02, 5.891634e-40, 1.676975e+01, -5.157358e-19, 8.701071e+01, -9.939881e-20
374, 1, 4.512632e+02, 5.885150e-40, 1.716561e+01, -5.153399e-19, 8.801255e+01, -1.005098e-19
374, 2, 4.512632e+02, 5.885150e-40, 1.716561e+01, -5.153399e-19, 8.801255e+01, -1.005098e-19
374, 3, 4.512632e+02, 5.885150e-40, 1.716561e+01, -5.153399e-19, 8.801255e+01, -1.005098e-19
374, 4, 4.512632e+02, 5.885150e-40, 1.716561e+01, -5.153399e-19, 8.801255e+01, -1.005098e-19
374, 5, 4.512632e+02, 5.885150e-40, 1.716561e+01, -5.153399e-19, 8.801255e+01, -1.005098e-19
374, 6, 4.512632e+02, 5.885150e-40, 1.716561e+01, -5.153399e-19, 8.801255e+01, -1.005098e-19
374, 7, 4.512632e+02, 5.885150e-40, 1.716561e+01, -5.153399e-19, 8.801255e+01, -1.005098e-19
374, 8, 4.512632e+02, 5.885150e-40, 1.716561e+01, -5.153399e-19, 8.801255e+01, -1.005098e-19
375, 1, 4.511340e+02, 5.901179e-40, 1.743157e+01, -5.159673e-19, 8.867905e+01, -1.014233e-19
375, 2, 4.511340e+02, 5.901179e-40, 1.743157e+01, -5.159673e-19, 8.867905e+01, -1.014233e-19
375, 3, 4.511340e+02, 5.901179e-40, 1.743157e+01, -5.159673e-19, 8.867905e+01, -1.014233e-19
375, 4, 4.511340e+02, 5.901179e-40, 1.743157e+01, -5.159673e-19, 8.867905e+01, -1.014233e-19
375, 5, 4.511340e+02, 5.901179e-40, 1.743157e+01, -5.159673e-19, 8.867905e+01, -1.014233e-19
375, 6, 4.511340e+02, 5.901179e-40, 1.743157e+01, -5.159673e-19, 8.867905e+01, -1.014233e-19
375, 7, 4.511340e+02, 5.901179e-40, 1.743157e+01, -5.159673e-19, 8.867905e+01, -1.014233e-19
375, 8, 4.511340e+02, 5.901179e-40, 1.743157e+01, -5.159673e-19, 8.867905e+01, -1.014233e-19
376, 1, 4.509709e+02, 5.886434e-40, 1.776290e+01, -5.152291e-19, 8.950167e+01, -1.022546e-19
376, 2, 4.509709e+02, 5.886434e-40, 1.776290e+01, -5.152291e-19, 8.950167e+01, -1.022546e-19
376, 3, 4.509709e+02, 5.886434e-40, 1.776290e+01, -5.152291e-19, 8.950167e+01, -1.022546e-19
376, 4, 4.509709e+02, 5.886434e-40, 1.776290e+01, -5.152291e-19, 8.950167e+01, -1.022546e-19
376, 5, 4.509709e+02, 5.886434e-40, 1.776290e+01, -5.152291e-19, 8.950167e+01, -1.022546e-19
376, 6, 4.509709e+02, 5.886434e-40, 1.776290e+01, -5.152291e-19, 8.950167e+01, -1.022546e-19
376, 7, 4.509709e+02, 5.886434e-40, 1.776290e+01, -5.152291e-19, 8.950167e+01, -1.022546e-19
376, 8, 4.509709e+02, 5.886434e-40, 1.776290e+01, -5.152291e-19, 8.950167e+01, -1.022546e-19
377, 1, 4.507358e+02, 5.883901e-40, 1.824235e+01, -5.149840e-19, 9.067790e+01, -1.036032e-19
377, 2, 4.507358e+02, 5.883901e-40, 1.824235e+01, -5.149840e-19, 9.067790e+01, -1.036032e-19
377, 3, 4.507358e+02, 5.883901e-40, 1.824235e+01, -5.149840e-19, 9.067790e+01, -1.036032e-19
377, 4, 4.507358e+02, 5.883901e-40, 1.824235e+01, -5.149840e-19, 9.067790e+01, -1.036032e-19
377, 5, 4.507358e+02, 5.883901e-40, 1.824235e+01, -5.149840e-19, 9.067790e+01, -1.036032e-19
377, 6, 4.507358e+02, 5.883901e-40, 1.824235e+01, -5.149840e-19, 9.067790e+01, -1.036032e-19
377, 7, 4.507358e+02, 5.883901e-40, 1.824235e+01, -5.149840e-19, 9.067790e+01, -1.036032e-19
377, 8, 4.507358e+02, 5.883901e-40, 1.824235e+01, -5.149840e-19, 9.067790e+01, -1.036032e-19
378, 1, 4.504990e+02, 5.879070e-40, 1.872809e+01, -5.146373e-19, 9.185307e+01, -1.049303e-19
378, 2, 4.504990e+02, 5.879070e-40, 1.872809e+01, -5.146373e-19, 9.185307e+01, -1.049303e-19
378, 3, 4.504990e+02, 5.879070e-40, 1.872809e+01, -5.146373e-19, 9.185307e+01, -1.049303e-19
378, 4, 4.504990e+02, 5.879070e-40, 1.872809e+01, -5.146373e-19, 9.185307e+01, -1.049303e-19
378, 5, 4.504990e+02, 5.879070e-40, 1.872809e+01, -5.146373e-19, 9.185307e+01, -1.049303e-19
378, 6, 4.504990e+02, 5.879070e-40, 1.872809e+01, -5.146373e-19, 9.185307e+01, -1.049303e-19
378, 7, 4.504990e+02, 5.879070e-40, 1.872809e+01, -5.146373e-19, 9.185307e+01, -1.049303e-19
378, 8, 4.504990e+02, 5.879070e-40, 1.872809e+01, -5.146373e-19, 9.185307e+01, -1.049303e-19
379, 1, 4.502582e+02, 5.877406e-40, 1.922002e+01, -5.144269e-19, 9.302673e+01, -1.062845e-19
379, 2, 4.502582e+02, 5.877406e-40, 1.922002e+01, -5.144269e-19, 9.302673e+01, -1.062845e-19
379, 3, 4.502582e+02, 5.877406e-40, 1.922002e+01, -5.144269e-19, 9.302673e+01, -1.062845e-19
379, 4, 4.502582e+02, 5.877406e-40, 1.922002e+01, -5.144269e-19, 9.302673e+01, -1.062845e-19
379, 5, 4.502582e+02, 5.877406e-40, 1.922002e+01, -5.144269e-19, 9.302673e+01, -1.062845e-19
379, 6, 4.502582e+02, 5.877406e-40, 1.922002e+01, -5.144269e-19, 9.302673e+01, -1.062845e-19
379, 7, 4.502582e+02, 5.877406e-40, 1.922002e+01, -5.144269e-19, 9.302673e+01, -1.062845e-19
379, 8, 4.502582e+02, 5.877406e-40, 1.922002e+01, -5.144269e-19, 9.302673e+01, -1.062845e-19
380, 1, 4.500135e+02, 5.873736e-40, 1.971813e+01, -5.141265e-19, 9.419885e+01, -1.076193e-19
380, 2, 4.500135e+02, 5.873736e-40, 1.971813e+01, -5.141265e-19, 9.419885e+01, -1.076193e-19
380, 3, 4.500135e+02, 5.873736e-40, 1.971813e+01, -5.141265e-19, 9.419885e+01, -1.076193e-19
380, 4, 4.500135e+02, 5.873736e-40, 1.971813e+01, -5.141265e-19, 9.419885e+01, -1.076193e-19
380, 5, 4.500135e+02, 5.873736e-40, 1.971813e+01, -5.141265e-19, 9.419885e+01, -1.076193e-19
380, 6, 4.500135e+02, 5.873736e-40, 1.971813e+01, -5.141265e-19, 9.419885e+01, -1.076193e-19
380, 7, 4.500135e+02, 5.873736e-40, 1.971813e+01, -5.141265e-19, 9.419885e+01, -1.076193e-19
380, 8, 4.500135e+02, 5.873736e-40, 1.971813e+01, -5.141265e-19, 9.419885e+01, -1.076193e-19
381, 1, 4.497670e+02, 5.873034e-40, 2.022250e+01, -5.139549e-19, 9.536987e+01, -1.089805e-19
381, 2, 4.497670e+02, 5.873034e-40, 2.022250e+01, -5.139549e-19, 9.536987e+01, -1.089805e-19
381, 3, 4.497670e+02, 5.873034e-40, 2.022250e+01, -5.139549e-19, 9.536987e+01, -1.089805e-19
381, 4, 4.497670e+02, 5.873034e-40, 2.022250e+01, -5.139549e-19, 9.536987e+01, -1.089805e-19
381, 5, 4.497670e+02, 5.873034e-40, 2.022250e+01, -5.139549e-19, 9.536987e+01, -1.089805e-19
381, 6, 4.497670e+02, 5.873034e-40, 2.022250e+01, -5.139549e-19, 9.536987e+01, -1.089805e-19
381, 7, 4.497670e+02, 5.873034e-40, 2.022250e+01, -5.139549e-19, 9.536987e+01, -1.089805e-19
381, 8, 4.497670e+02, 5.873034e-40, 2.022250e+01, -5.139549e-19, 9.536987e+01, -1.089805e-19
382, 1, 4.488998e+02, 5.860436e-40, 2.199559e+01, -5.129082e-19, 9.936707e+01, -1.135358e-19
382, 2, 4.488998e+02, 5.860436e-40, 2.199559e+01, -5.129082e-19, 9.936707e+01, -1.135358e-19
382, 3, 4.488998e+02, 5.860436e-40, 2.199559e+01, -5.129082e-19, 9.936707e+01, -1.135358e-19
382, 4, 4.488998e+02, 5.860436e-40, 2.199559e+01, -5.129082e-19, 9.936707e+01, -1.135358e-19
382, 5, 4.488998e+02, 5.860436e-40, 2.199559e+01, -5.129082e-19, 9.936707e+01, -1.135358e-19
382, 6, 4.488998e+02, 5.860436e-40, 2.199559e+01, -5.129082e-19, 9.936707e+01, -1.135358e-19
382, 7, 4.488998e+02, 5.860436e-40, 2.199559e+01, -5.129082e-19, 9.936707e+01, -1.135358e-19
382, 8, 4.488998e+02, 5.860436e-40, 2.199559e+01, -5.129082e-19, 9.936707e+01, -1.135358e-19
383, 1, 4.486415e+02, 5.858584e-40, 2.252740e+01, -5.126796e-19, 1.005322e+02, -1.148820e-19
383, 2, 4.486415e+02, 5.858584e-40, 2.252740e+01, -5.126796e-19, 1.005322e+02, -1.148820e-19
383, 3, 4.486415e+02, 5.858584e-40, 2.252740e+01, -5.126796e-19, 1.005322e+02, -1.148820e-19
383, 4, 4.486415e+02, 5.858584e-40, 2.252740e+01, -5.126796e-19, 1.005322e+02, -1.148820e-19
383, 5, 4.486415e+02, 5.858584e-40, 2.252740e+01, -5.126796e-19, 1.005322e+02, -1.148820e-19
383, 6, 4.486415e+02, 5.858584e-40, 2.252740e+01, -5.126796e-19, 1.005322e+02, -1.148820e-19
383, 7, 4.486415e+02, 5.858584e-40, 2.252740e+01, -5.126796e-19, 1.005322e+02, -1.148820e-19
383, 8, 4.486415e+02, 5.858584e-40, 2.252740e+01, -5.126796e-19, 1.005322e+02, -1.148820e-19
384, 1, 4.483794e+02, 5.854259e-40, 2.306533e+01, -5.123406e-19, 1.016957e+02, -1.162026e-19
384, 2, 4.483794e+02, 5.854259e-40, 2.306533e+01, -5.123406e-19, 1.016957e+02, -1.162026e-19
384, 3, 4.483794e+02, 5.854259e-40, 2.306533e+01, -5.123406e-19, 1.016957e+02, -1.162026e-19
384, 4, 4.483794e+02, 5.854259e-40, 2.306533e+01, -5.123406e-19, 1.016957e+02, -1.162026e-19
384, 5, 4.483794e+02, 5.854259e-40, 2.306533e+01, -5.123406e-19, 1.016957e+02, -1.162026e-19
384, 6, 4.483794e+02, 5.854259e-40, 2.306533e+01, -5.123406e-19, 1.016957e+02, -1.162026e-19
384, 7, 4.483794e+02, 5.854259e-40, 2.306533e+01, -5.123406e-19, 1.016957e+02, -1.162026e-19
384, 8, 4.483794e+02, 5.854259e-40, 2.306533e+01, -5.123406e-19, 1.016957e+02, -1.162026e-19
385, 1, 4.481134e+02, 5.850093e-40, 2.360937e+01, -5.120063e-19, 1.028575e+02, -1.175232e-19
385, 2, 4.481134e+02, 5.850093e-40, 2.360937e+01, -5.120063e-19, 1.028575e+02, -1.175232e-19
385, 3, 4.481134e+02, 5.850093e-40, 2.360937e+01, -5.120063e-19, 1.028575e+02, -1.175232e-19
385, 4, 4.481134e+02, 5.850093e-40, 2.360937e+01, -5.120063e-19, 1.028575e+02, -1.175232e-19
385, 5, 4.481134e+02, 5.850093e-40, 2.360937e+01, -5.120063e-19, 1.028575e+02, -1.175232e-19
385, 6, 4.481134e+02, 5.850093e-40, 2.360937e+01, -5.120063e-19, 1.028575e+02, -1.175232e-19
385, 7, 4.481134e+02, 5.850093e-40, 2.360937e+01, -5.120063e-19, 1.028575e+02, -1.175232e-19
385, 8, 4.481134e+02, 5.850093e-40, 2.360937e+01, -5.120063e-19, 1.028575e+02, -1.175232e-19
386, 1, 4.478457e+02, 5.848571e-40, 2.415962e+01, -5.117868e-19, 1.040182e+02, -1.188694e-19
386, 2, 4.478457e+02, 5.848571e-40, 2.415962e+01, -5.117868e-19, 1.040182e+02, -1.188694e-19
386, 3, 4.478457e+02, 5.848571e-40, 2.415962e+01, -5.117868e-19, 1.040182e+02, -1.188694e-19
386, 4, 4.478457e+02, 5.848571e-40, 2.415962e+01, -5.117868e-19, 1.040182e+02, -1.188694e-19
386, 5, 4.478457e+02, 5.848571e-40, 2.415962e+01, -5.117868e-19, 1.040182e+02, -1.188694e-19
386, 6, 4.478457e+02, 5.848571e-40, 2.415962e+01, -5.117868e-19, 1.040182e+02, -1.188694e-19
386, 7, 4.478457e+02, 5.848571e-40, 2.415962e+01, -5.117868e-19, 1.040182e+02, -1.188694e-19
386, 8, 4.478457e+02, 5.848571e-40, 2.415962e+01, -5.117868e-19, 1.040182e+02, -1.188694e-19
387, 1, 4.475762e+02, 5.841886e-40, 2.471608e+01, -5.113403e-19, 1.051776e+02, -1.201618e-19
387, 2, 4.475762e+02, 5.841886e-40, 2.471608e+01, -5.113403e-19, 1.051776e+02, -1.201618e-19
387, 3, 4.475762e+02, 5.841886e-40, 2.471608e+01, -5.113403e-19, 1.051776e+02, -1.201618e-19
387, 4, 4.475762e+02, 5.841886e-40, 2.471608e+01, -5.113403e-19, 1.051776e+02, -1.201618e-19
387, 5, 4.475762e+02, 5.841886e-40, 2.471608e+01, -5.113403e-19, 1.051776e+02, -1.201618e-19
387, 6, 4.475762e+02, 5.841886e-40, 2.471608e+01, -5.113403e-19, 1.051776e+02, -1.201618e-19
387, 7, 4.475762e+02, 5.841886e-40, 2.471608e+01, -5.113403e-19, 1.051776e+02, -1.201618e-19
387, 8, 4.475762e+02, 5.841886e-40, 2.471608e+01, -5.113403e-19, 1.051776e+02, -1.201618e-19
388, 1, 4.473855e+02, 5.850134e-40, 2.510634e+01, -5.115921e-19, 1.059821e+02, -1.211922e-19
388, 2, 4.473855e+02, 5.850134e-40, 2.510634e+01, -5.115921e-19, 1.059821e+02, -1.211922e-19
388, 3, 4.473855e+02, 5.850134e-40, 2.510634e+01, -5.115921e-19, 1.059821e+02, -1.211922e-19
388, 4, 4.473855e+02, 5.850134e-40, 2.510634e+01, -5.115921e-19, 1.059821e+02, -1.211922e-19
388, 5, 4.473855e+02, 5.850134e-40, 2.510634e+01, -5.115921e-19, 1.059821e+02, -1.211922e-19
388, 6, 4.473855e+02, 5.850134e-40, 2.510634e+01, -5.115921e-19, 1.059821e+02, -1.211922e-19
388, 7, 4.473855e+02, 5.850134e-40, 2.510634e+01, -5.115921e-19, 1.059821e+02, -1.211922e-19
388, 8, 4.473855e+02, 5.850134e-40, 2.510634e+01, -5.115921e-19, 1.059821e+02, -1.211922e-19
389, 1, 4.472282e+02, 5.837088e-40, 2.542959e+01, -5.109315e-19, 1.066435e+02, -1.218338e-19
389, 2, 4.472282e+02, 5.837088e-40, 2.542959e+01, -5.109315e-19, 1.066435e+02, -1.218338e-19
389, 3, 4.472282e+02, 5.837088e-40, 2.542959e+01, -5.109315e-19, 1.066435e+02, -1.218338e-19
389, 4, 4.472282e+02, 5.837088e-40, 2.542959e+01, -5.109315e-19, 1.066435e+02, -1.218338e-19
389, 5, 4.472282e+02, 5.837088e-40, 2.542959e+01, -5.109315e-19, 1.066435e+02, -1.218338e-19
389, 6, 4.472282e+02, 5.837088e-40, 2.542959e+01, -5.109315e-19, 1.066435e+02, -1.218338e-19
389, 7, 4.472282e+02, 5.837088e-40, 2.542959e+01, -5.109315e-19, 1.066435e+02, -1.218338e-19
389, 8, 4.472282e+02, 5.837088e-40, 2.542959e+01, -5.109315e-19, 1.066435e+02, -1.218338e-19
390, 1, 4.469945e+02, 5.836739e-40, 2.591220e+01, -5.107828e-19, 1.076225e+02, -1.229808e-19
390, 2, 4.469945e+02, 5.836739e-40, 2.591220e+01, -5.107828e-19, 1.076225e+02, -1.229808e-19
390, 3, 4.469945e+02, 5.836739e-40, 2.591220e+01, -5.107828e-19, 1.076225e+02, -1.229808e-19
390, 4, 4.469945e+02, 5.836739e-40, 2.591220e+01, -5.107828e-19, 1.076225e+02, -1.229808e-19
390, 5, 4.469945e+02, 5.836739e-40, 2.591220e+01, -5.107828e-19, 1.076225e+02, -1.229808e-19
390, 6, 4.469945e+02, 5.836739e-40, 2.591220e+01, -5.107828e-19, 1.076225e+02, -1.229808e-19
390, 7, 4.469945e+02, 5.836739e-40, 2.591220e+01, -5.107828e-19, 1.076225e+02, -1.229808e-19
390, 8, 4.469945e+02, 5.836739e-40, 2.591220e+01, -5.107828e-19, 1.076225e+02, -1.229808e-19
391, 1, 4.467129e+02, 5.833168e-40, 2.648755e+01, -5.104656e-19, 1.087765e+02, -1.243006e-19
391, 2, 4.467129e+02, 5.833168e-40, 2.648755e+01, -5.104656e-19, 1.087765e+02, -1.243006e-19
391, 3, 4.467129e+02, 5.833168e-40, 2.648755e+01, -5.104656e-19, 1.087765e+02, -1.243006e-19
391, 4, 4.467129e+02, 5.833168e-40, 2.648755e+01, -5.104656e-19, 1.087765e+02, -1.243006e-19
391, 5, 4.467129e+02, 5.833168e-40, 2.648755e+01, -5.104656e-19, 1.087765e+02, -1.243006e-19
391, 6, 4.467129e+02, 5.833168e-40, 2.648755e+01, -5.104656e-19, 1.087765e+02, -1.243006e-19
391, 7, 4.467129e+02, 5.833168e-40, 2.648755e+01, -5.104656e-19, 1.087765e+02, -1.243006e-19
391, 8, 4.467129e+02, 5.833168e-40, 2.648755e+01, -5.104656e-19, 1.087765e+02, -1.243006e-19
392, 1, 4.464317e+02, 5.829248e-40, 2.706920e+01, -5.101334e-19, 1.099297e+02, -1.256157e-19
392, 2, 4.464317e+02, 5.829248e-40, 2.706920e+01, -5.101334e-19, 1.099297e+02, -1.256157e-19
392, 3, 4.464317e+02, 5.829248e-40, 2.706920e+01, -5.101334e-19, 1.099297e+02, -1.256157e-19
392, 4, 4.464317e+02, 5.829248e-40, 2.706920e+01, -5.101334e-19, 1.099297e+02, -1.256157e-19
392, 5, 4.464317e+02, 5.829248e-40, 2.706920e+01, -5.101334e-19, 1.099297e+02, -1.256157e-19
392, 6, 4.464317e+02, 5.829248e-40, 2.706920e+01, -5.101334e-19, 1.099297e+02, -1.256157e-19
392, 7, 4.464317e+02, 5.829248e-40, 2.706920e+01, -5.101334e-19, 1.099297e+02, -1.256157e-19
392, 8, 4.464317e+02, 5.829248e-40, 2.706920e+01, -5.101334e-19, 1.099297e+02, -1.256157e-19
393, 1, 4.461467e+02, 5.824959e-40, 2.765689e+01, -5.097829e-19, 1.110812e+02, -1.269253e-19
393, 2, 4.461467e+02, 5.824959e-40, 2.765689e+01, -5.097829e-19, 1.110812e+02, -1.269253e-19
393, 3, 4.461467e+02, 5.824959e-40, 2.765689e+01, -5.097829e-19, 1.110812e+02, -1.269253e-19
393, 4, 4.461467e+02, 5.824959e-40, 2.765689e+01, -5.097829e-19, 1.110812e+02, -1.269253e-19
393, 5, 4.461467e+02, 5.824959e-40, 2.765689e+01, -5.097829e-19, 1.110812e+02, -1.269253e-19
393, 6, 4.461467e+02, 5.824959e-40, 2.765689e+01, -5.097829e-19, 1.110812e+02, -1.269253e-19
393, 7, 4.461467e+02, 5.824959e-40, 2.765689e+01, -5.097829e-19, 1.110812e+02, -1.269253e-19
393, 8, 4.461467e+02, 5.824959e-40, 2.765689e+01, -5.097829e-19, 1.110812e+02, -1.269253e-19
394, 1, 4.458579e+02, 5.820500e-40, 2.825061e+01, -5.094228e-19, 1.122308e+02, -1.282313e-19
394, 2, 4.458579e+02, 5.820500e-40, 2.825061e+01, -5.094228e-19, 1.122308e+02, -1.282313e-19
394, 3, 4.458579e+02, 5.820500e-40, 2.825061e+01, -5.094228e-19, 1.122308e+02, -1.282313e-19
394, 4, 4.458579e+02, 5.820500e-40, 2.825061e+01, -5.094228e-19, 1.122308e+02, -1.282313e-19
394, 5, 4.458579e+02, 5.820500e-40, 2.825061e+01, -5.094228e-19, 1.122308e+02, -1.282313e-19
394, 6, 4.458579e+02, 5.820500e-40, 2.825061e+01, -5.094228e-19, 1.122308e+02, -1.282313e-19
394, 7, 4.458579e+02, 5.820500e-40, 2.825061e+01, -5.094228e-19, 1.122308e+02, -1.282313e-19
394, 8, 4.458579e+02, 5.820500e-40, 2.825061e+01, -5.094228e-19, 1.122308e+02, -1.282313e-19
395, 1, 4.456130e+02, 5.817268e-40, 2.876012e+01, -5.091415e-19, 1.132073e+02, -1.293466e-19
395, 2, 4.456130e+02, 5.817268e-40, 2.876012e+01, -5.091415e-19, 1.132073e+02, -1.293466e-19
395, 3, 4.456130e+02, 5.817268e-40, 2.876012e+01, -5.091415e-19, 1.132073e+02, -1.293466e-19
395, 4, 4.456130e+02, 5.817268e-40, 2.876012e+01, -5.091415e-19, 1.132073e+02, -1.293466e-19
395, 5, 4.456130e+02, 5.817268e-40, 2.876012e+01, -5.091415e-19, 1.132073e+02, -1.293466e-19
395, 6, 4.456130e+02, 5.817268e-40, 2.876012e+01, -5.091415e-19, 1.132073e+02, -1.293466e-19
395, 7, 4.456130e+02, 5.817268e-40, 2.876012e+01, -5.091415e-19, 1.132073e+02, -1.293466e-19
395, 8, 4.456130e+02, 5.817268e-40, 2.876012e+01, -5.091415e-19, 1.132073e+02, -1.293466e-19
396, 1, 4.454448e+02, 5.824423e-40, 2.910097e+01, -5.093583e-19, 1.138546e+02, -1.301908e-19
396, 2, 4.454448e+02, 5.824423e-40, 2.910097e+01, -5.093583e-19, 1.138546e+02, -1.301908e-19
396, 3, 4.454448e+02, 5.824423e-40, 2.910097e+01, -5.093583e-19, 1.138546e+02, -1.301908e-19
396, 4, 4.454448e+02, 5.824423e-40, 2.910097e+01, -5.093583e-19, 1.138546e+02, -1.301908e-19
396, 5, 4.454448e+02, 5.824423e-40, 2.910097e+01, -5.093583e-19, 1.138546e+02, -1.301908e-19
396, 6, 4.454448e+02, 5.824423e-40, 2.910097e+01, -5.093583e-19, 1.138546e+02, -1.301908e-19
396, 7, 4.454448e+02, 5.824423e-40, 2.910097e+01, -5.093583e-19, 1.138546e+02, -1.301908e-19
396, 8, 4.454448e+02, 5.824423e-40, 2.910097e+01, -5.093583e-19, 1.138546e+02, -1.301908e-19
397, 1, 4.452423e+02, 5.814264e-40, 2.952545e+01, -5.087982e-19, 1.146559e+02, -1.310224e-19
397, 2, 4.452423e+02, 5.814264e-40, 2.952545e+01, -5.087982e-19, 1.146559e+02, -1.310224e-19
397, 3, 4.452423e+02, 5.814264e-40, 2.952545e+01, -5.087982e-19, 1.146559e+02, -1.310224e-19
397, 4, 4.452423e+02, 5.814264e-40, 2.952545e+01, -5.087982e-19, 1.146559e+02, -1.310224e-19
397, 5, 4.452423e+02, 5.814264e-40, 2.952545e+01, -5.087982e-19, 1.146559e+02, -1.310224e-19
397, 6, 4.452423e+02, 5.814264e-40, 2.952545e+01, -5.087982e-19, 1.146559e+02, -1.310224e-19
397, 7, 4.452423e+02, 5.814264e-40, 2.952545e+01, -5.087982e-19, 1.146559e+02, -1.310224e-19
397, 8, 4.452423e+02, 5.814264e-40, 2.952545e+01, -5.087982e-19, 1.146559e+02, -1.310224e-19
398, 1, 4.449437e+02, 5.811641e-40, 3.013800e+01, -5.085128e-19, 1.158003e+02, -1.323447e-19
398, 2, 4.449437e+02, 5.811641e-40, 3.013800e+01, -5.085128e-19, 1.158003e+02, -1.323447e-19
398, 3, 4.449437e+02, 5.811641e-40, 3.013800e+01, -5.085128e-19, 1.158003e+02, -1.323447e-19
398, 4, 4.449437e+02, 5.811641e-40, 3.013800e+01, -5.085128e-19, 1.158003e+02, -1.323447e-19
398, 5, 4.449437e+02, 5.811641e-40, 3.013800e+01, -5.085128e-19, 1.158003e+02, -1.323447e-19
398, 6, 4.449437e+02, 5.811641e-40, 3.013800e+01, -5.085128e-19, 1.158003e+02, -1.323447e-19
398, 7, 4.449437e+02, 5.811641e-40, 3.013800e+01, -5.085128e-19, 1.158003e+02, -1.323447e-19
398, 8, 4.449437e+02, 5.811641e-40, 3.013800e+01, -5.085128e-19, 1.158003e+02, -1.323447e-19
399, 1, 4.446455e+02, 5.808418e-40, 3.075682e+01, -5.082014e-19, 1.169439e+02, -1.336594e-19
399, 2, 4.446455e+02, 5.808418e-40, 3.075682e+01, -5.082014e-19, 1.169439e+02, -1.336594e-19
399, 3, 4.446455e+02, 5.808418e-40, 3.075682e+01, -5.082014e-19, 1.169439e+02, -1.336594e-19
399, 4, 4.446455e+02, 5.808418e-40, 3.075682e+01, -5.082014e-19, 1.169439e+02, -1.336594e-19
399, 5, 4.446455e+02, 5.808418e-40, 3.075682e+01, -5.082014e-19, 1.169439e+02, -1.336594e-19
399, 6, 4.446455e+02, 5.808418e-40, 3.075682e+01, -5.082014e-19, 1.169439e+02, -1.336594e-19
399, 7, 4.446455e+02, 5.808418e-40, 3.075682e+01, -5.082014e-19, 1.169439e+02, -1.336594e-19
399, 8, 4.446455e+02, 5.808418e-40, 3.075682e+01, -5.082014e-19, 1.169439e+02, -1.336594e-19
400, 1, 4.443436e+02, 5.802184e-40, 3.138162e+01, -5.077562e-19, 1.180857e+02, -1.349377e-19
400, 2, 4.443436e+02, 5.802184e-40, 3.138162e+01, -5.077562e-19, 1.180857e+02, -1.349377e-19
400, 3, 4.443436e+02, 5.802184e-40, 3.138162e+01, -5.077562e-19, 1.180857e+02, -1.349377e-19
400, 4, 4.443436e+02, 5.802184e-40, 3.138162e+01, -5.077562e-19, 1.180857e+02, -1.349377e-19
400, 5, 4.443436e+02, 5.802184e-40, 3.138162e+01, -5.077562e-19, 1.180857e+02, -1.349377e-19
400, 6, 4.443436e+02, 5.802184e-40, 3.138162e+01, -5.077562e-19, 1.180857e+02, -1.349377e-19
400, 7, 4.443436e+02, 5.802184e-40, 3.138162e+01, -5.077562e-19, 1.180857e+02, -1.349377e-19
400, 8, 4.443436e+02, 5.802184e-40, 3.138162e+01, -5.077562e-19, 1.180857e+02, -1.349377e-19
401, 1, 4.440401e+02, 5.797819e-40, 3.201254e+01, -5.073918e-19, 1.192260e+02, -1.362362e-19
401, 2, 4.440401e+02, 5.797819e-40, 3.201254e+01, -5.073918e-19, 1.192260e+02, -1.362362e-19
401, 3, 4.440401e+02, 5.797819e-40, 3.201254e+01, -5.073918e-19, 1.192260e+02, -1.362362e-19
401, 4, 4.440401e+02, 5.797819e-40, 3.201254e+01, -5.073918e-19, 1.192260e+02, -1.362362e-19
401, 5, 4.440401e+02, 5.797819e-40, 3.201254e+01, -5.073918e-19, 1.192260e+02, -1.362362e-19
401, 6, 4.440401e+02, 5.797819e-40, 3.201254e+01, -5.073918e-19, 1.192260e+02, -1.362362e-19
401, 7, 4.440401e+02, 5.797819e-40, 3.201254e+01, -5.073918e-19, 1.192260e+02, -1.362362e-19
401, 8, 4.440401e+02, 5.797819e-40, 3.201254e+01, -5.073918e-19, 1.192260e+02, -1.362362e-19
402, 1, 4.437307e+02, 5.794984e-40, 3.264926e+01, -5.070910e-19, 1.203639e+02, -1.375507e-19
402, 2, 4.437307e+02, 5.794984e-40, 3.264926e+01, -5.070910e-19, 1.203639e+02, -1.375507e-19
402, 3, 4.437307e+02, 5.794984e-40, 3.264926e+01, -5.070910e-19, 1.203639e+02, -1.375507e-19
402, 4, 4.437307e+02, 5.794984e-40, 3.264926e+01, -5.070910e-19, 1.203639e+02, -1.375507e-19
402, 5, 4.437307e+02, 5.794984e-40, 3.264926e+01, -5.070910e-19, 1.203639e+02, -1.375507e-19
402, 6, 4.437307e+02, 5.794984e-40, 3.264926e+01, -5.070910e-19, 1.203639e+02, -1.375507e-19
402, 7, 4.437307e+02, 5.794984e-40, 3.264926e+01, -5.070910e-19, 1.203639e+02, -1.375507e-19
402, 8, 4.437307e+02, 5.794984e-40, 3.264926e+01, -5.070910e-19, 1.203639e+02, -1.375507e-19
403, 1, 4.426688e+02, 5.783752e-40, 3.485477e+01, -5.059927e-19, 1.242140e+02, -1.419829e-19
403, 2, 4.426688e+02, 5.783752e-40, 3.485477e+01, -5.059927e-19, 1.242140e+02, -1.419829e-19
403, 3, 4.426688e+02, 5.783752e-40, 3.485477e+01, -5.059927e-19, 1.242140e+02, -1.419829e-19
403, 4, 4.426688e+02, 5.783752e-40, 3.485477e+01, -5.059927e-19, 1.242140e+02, -1.419829e-19
403, 5, 4.426688e+02, 5.783752e-40, 3.485477e+01, -5.059927e-19, 1.242140e+02, -1.419829e-19
403, 6, 4.426688e+02, 5.783752e-40, 3.485477e+01, -5.059927e-19, 1.242140e+02, -1.419829e-19
403, 7, 4.426688e+02, 5.783752e-40, 3.485477e+01, -5.059927e-19, 1.242140e+02, -1.419829e-19
403, 8, 4.426688e+02, 5.783752e-40, 3.485477e+01, -5.059927e-19, 1.242140e+02, -1.419829e-19
404, 1, 4.423507e+02, 5.779206e-40, 3.551810e+01, -5.056121e-19, 1.253454e+02, -1.432712e-19
404, 2, 4.423507e+02, 5.779206e-40, 3.551810e+01, -5.056121e-19, 1.253454e+02, -1.432712e-19
404, 3, 4.423507e+02, 5.779206e-40, 3.551810e+01, -5.056121e-19, 1.253454e+02, -1.432712e-19
404, 4, 4.423507e+02, 5.779206e-40, 3.551810e+01, -5.056121e-19, 1.253454e+02, -1.432712e-19
404, 5, 4.423507e+02, 5.779206e-40, 3.551810e+01, -5.056121e-19, 1.253454e+02, -1.432712e-19
404, 6, 4.423507e+02, 5.779206e-40, 3.551810e+01, -5.056121e-19, 1.253454e+02, -1.432712e-19
404, 7, 4.423507e+02, 5.779206e-40, 3.551810e+01, -5.056121e-19, 1.253454e+02, -1.432712e-19
404, 8, 4.423507e+02, 5.779206e-40, 3.551810e+01, -5.056121e-19, 1.253454e+02, -1.432712e-19
405, 1, 4.420270e+02, 5.773548e-40, 3.618716e+01, -5.051796e-19, 1.264741e+02, -1.445435e-19
405, 2, 4.420270e+02, 5.773548e-40, 3.618716e+01, -5.051796e-19, 1.264741e+02, -1.445435e-19
405, 3, 4.420270e+02, 5.773548e-40, 3.618716e+01, -5.051796e-19, 1.264741e+02, -1.445435e-19
405, 4, 4.420270e+02, 5.773548e-40, 3.618716e+01, -5.051796e-19, 1.264741e+02, -1.445435e-19
405, 5, 4.420270e+02, 5.773548e-40, 3.618716e+01, -5.051796e-19, 1.264741e+02, -1.445435e-19
405, 6, 4.420270e+02, 5.773548e-40, 3.618716e+01, -5.051796e-19, 1.264741e+02, -1.445435e-19
405, 7, 4.420270e+02, 5.773548e-40, 3.618716e+01, -5.051796e-19, 1.264741e+02, -1.445435e-19
405, 8, 4.420270e+02, 5.773548e-40, 3.618716e+01, -5.051796e-19, 1.264741e+02, -1.445435e-19
406, 1, 4.417037e+02, 5.769228e-40, 3.686245e+01, -5.048059e-19, 1.276020e+02, -1.458314e-19
406, 2, 4.417037e+02, 5.769228e-40, 3.686245e+01, -5.048059e-19, 1.276020e+02, -1.458314e-19
406, 3, 4.417037e+02, 5.769228e-40, 3.686245e+01, -5.048059e-19, 1.276020e+02, -1.458314e-19
406, 4, 4.417037e+02, 5.769228e-40, 3.686245e+01, -5.048059e-19, 1.276020e+02, -1.458314e-19
406, 5, 4.417037e+02, 5.769228e-40, 3.686245e+01, -5.048059e-19, 1.276020e+02, -1.458314e-19
406, 6, 4.417037e+02, 5.769228e-40, 3.686245e+01, -5.048059e-19, 1.276020e+02, -1.458314e-19
406, 7, 4.417037e+02, 5.769228e-40, 3.686245e+01, -5.048059e-19, 1.276020e+02, -1.458314e-19
406, 8, 4.417037e+02, 5.769228e-40, 3.686245e+01, -5.048059e-19, 1.276020e+02, -1.458314e-19
407, 1, 4.413769e+02, 5.763854e-40, 3.754362e+01, -5.043839e-19, 1.287279e+02, -1.471040e-19
407, 2, 4.413769e+02, 5.763854e-40, 3.754362e+01, -5.043839e-19, 1.287279e+02, -1.471040e-19
407, 3, 4.413769e+02, 5.763854e-40, 3.754362e+01, -5.043839e-19, 1.287279e+02, -1.471040e-19
407, 4, 4.413769e+02, 5.763854e-40, 3.754362e+01, -5.043839e-19, 1.287279e+02, -1.471040e-19
407, 5, 4.413769e+02, 5.763854e-40, 3.754362e+01, -5.043839e-19, 1.287279e+02, -1.471040e-19
407, 6, 4.413769e+02, 5.763854e-40, 3.754362e+01, -5.043839e-19, 1.287279e+02, -1.471040e-19
407, 7, 4.413769e+02, 5.763854e-40, 3.754362e+01, -5.043839e-19, 1.287279e+02, -1.471040e-19
407, 8, 4.413769e+02, 5.763854e-40, 3.754362e+01, -5.043839e-19, 1.287279e+02, -1.471040e-19
408, 1, 4.410505e+02, 5.759639e-40, 3.823101e+01, -5.040131e-19, 1.298530e+02, -1.483903e-19
408, 2, 4.410505e+02, 5.759639e-40, 3.823101e+01, -5.040131e-19, 1.298530e+02, -1.483903e-19
408, 3, 4.410505e+02, 5.759639e-40, 3.823101e+01, -5.040131e-19, 1.298530e+02, -1.483903e-19
408, 4, 4.410505e+02, 5.759639e-40, 3.823101e+01, -5.040131e-19, 1.298530e+02, -1.483903e-19
408, 5, 4.410505e+02, 5.759639e-40, 3.823101e+01, -5.040131e-19, 1.298530e+02, -1.483903e-19
408, 6, 4.410505e+02, 5.759639e-40, 3.823101e+01, -5.040131e-19, 1.298530e+02, -1.483903e-19
408, 7, 4.410505e+02, 5.759639e-40, 3.823101e+01, -5.040131e-19, 1.298530e+02, -1.483903e-19
408, 8, 4.410505e+02, 5.759639e-40, 3.823101e+01, -5.040131e-19, 1.298530e+02, -1.483903e-19
409, 1, 4.408185e+02, 5.764538e-40, 3.871187e+01, -5.040948e-19, 1.306327e+02, -1.493841e-19
409, 2, 4.408185e+02, 5.764538e-40, 3.871187e+01, -5.040948e-19, 1.306327e+02, -1.493841e-19
409, 3, 4.408185e+02, 5.764538e-40, 3.871187e+01, -5.040948e-19, 1.306327e+02, -1.493841e-19
409, 4, 4.408185e+02, 5.764538e-40, 3.871187e+01, -5.040948e-19, 1.306327e+02, -1.493841e-19
409, 5, 4.408185e+02, 5.764538e-40, 3.871187e+01, -5.040948e-19, 1.306327e+02, -1.493841e-19
409, 6, 4.408185e+02, 5.764538e-40, 3.871187e+01, -5.040948e-19, 1.306327e+02, -1.493841e-19
409, 7, 4.408185e+02, 5.764538e-40, 3.871187e+01, -5.040948e-19, 1.306327e+02, -1.493841e-19
409, 8, 4.408185e+02, 5.764538e-40, 3.871187e+01, -5.040948e-19, 1.306327e+02, -1.493841e-19
410, 1, 4.406259e+02, 5.755367e-40, 3.910851e+01, -5.035835e-19, 1.312716e+02, -1.500279e-19
410, 2, 4.406259e+02, 5.755367e-40, 3.910851e+01, -5.035835e-19, 1.312716e+02, -1.500279e-19
410, 3, 4.406259e+02, 5.755367e-40, 3.910851e+01, -5.035835e-19, 1.312716e+02, -1.500279e-19
410, 4, 4.406259e+02, 5.755367e-40, 3.910851e+01, -5.035835e-19, 1.312716e+02, -1.500279e-19
410, 5, 4.406259e+02, 5.755367e-40, 3.910851e+01, -5.035835e-19, 1.312716e+02, -1.500279e-19
410, 6, 4.406259e+02, 5.755367e-40, 3.910851e+01, -5.035835e-19, 1.312716e+02, -1.500279e-19
410, 7, 4.406259e+02, 5.755367e-40, 3.910851e+01, -5.035835e-19, 1.312716e+02, -1.500279e-19
410, 8, 4.406259e+02, 5.755367e-40, 3.910851e+01, -5.035835e-19, 1.312716e+02, -1.500279e-19
411, 1, 4.403445e+02, 5.751085e-40, 3.970159e+01, -5.032354e-19, 1.322209e+02, -1.511050e-19
411, 2, 4.403445e+02, 5.751085e-40, 3.970159e+01, -5.032354e-19, 1.322209e+02, -1.511050e-19
411, 3, 4.403445e+02, 5.751085e-40, 3.970159e+01, -5.032354e-19, 1.322209e+02, -1.511050e-19
411, 4, 4.403445e+02, 5.751085e-40, 3.970159e+01, -5.032354e-19, 1.322209e+02, -1.511050e-19
411, 5, 4.403445e+02, 5.751085e-40, 3.970159e+01, -5.032354e-19, 1.322209e+02, -1.511050e-19
411, 6, 4.403445e+02, 5.751085e-40, 3.970159e+01, -5.032354e-19, 1.322209e+02, -1.511050e-19
411, 7, 4.403445e+02, 5.751085e-40, 3.970159e+01, -5.032354e-19, 1.322209e+02, -1.511050e-19
411, 8, 4.403445e+02, 5.751085e-40, 3.970159e+01, -5.032354e-19, 1.322209e+02, -1.511050e-19
412, 1, 4.400067e+02, 5.748224e-40, 4.040715e+01, -5.029172e-19, 1.333395e+02, -1.524039e-19
412, 2, 4.400067e+02, 5.748224e-40, 4.040715e+01, -5.029172e-19, 1.333395e+02, -1.524039e-19
412, 3, 4.400067e+02, 5.748224e-40, 4.040715e+01, -5.029172e-19, 1.333395e+02, -1.524039e-19
412, 4, 4.400067e+02, 5.748224e-40, 4.040715e+01, -5.029172e-19, 1.333395e+02, -1.524039e-19
412, 5, 4.400067e+02, 5.748224e-40, 4.040715e+01, -5.029172e-19, 1.333395e+02, -1.524039e-19
412, 6, 4.400067e+02, 5.748224e-40, 4.040715e+01, -5.029172e-19, 1.333395e+02, -1.524039e-19
412, 7, 4.400067e+02, 5.748224e-40, 4.040715e+01, -5.029172e-19, 1.333395e+02, -1.524039e-19
412, 8, 4.400067e+02, 5.748224e-40, 4.040715e+01, -5.029172e-19, 1.333395e+02, -1.524039e-19
413, 1, 4.396673e+02, 5.744245e-40, 4.111871e+01, -5.025492e-19, 1.344565e+02, -1.536867e-19
413, 2, 4.396673e+02, 5.744245e-40, 4.111871e+01, -5.025492e-19, 1.344565e+02, -1.536867e-19
413, 3, 4.396673e+02, 5.744245e-40, 4.111871e+01, -5.025492e-19, 1.344565e+02, -1.536867e-19
413, 4, 4.396673e+02, 5.744245e-40, 4.111871e+01, -5.025492e-19, 1.344565e+02, -1.536867e-19
413, 5, 4.396673e+02, 5.744245e-40, 4.111871e+01, -5.025492e-19, 1.344565e+02, -1.536867e-19
413, 6, 4.396673e+02, 5.744245e-40, 4.111871e+01, -5.025492e-19, 1.344565e+02, -1.536867e-19
413, 7, 4.396673e+02, 5.744245e-40, 4.111871e+01, -5.025492e-19, 1.344565e+02, -1.536867e-19
413, 8, 4.396673e+02, 5.744245e-40, 4.111871e+01, -5.025492e-19, 1.344565e+02, -1.536867e-19
414, 1, 4.393244e+02, 5.740891e-40, 4.183608e+01, -5.022065e-19, 1.355714e+02, -1.549762e-19
414, 2, 4.393244e+02, 5.740891e-40, 4.183608e+01, -5.022065e-19, 1.355714e+02, -1.549762e-19
414, 3, 4.393244e+02, 5.740891e-40, 4.183608e+01, -5.022065e-19, 1.355714e+02, -1.549762e-19
414, 4, 4.393244e+02, 5.740891e-40, 4.183608e+01, -5.022065e-19, 1.355714e+02, -1.549762e-19
414, 5, 4.393244e+02, 5.740891e-40, 4.183608e+01, -5.022065e-19, 1.355714e+02, -1.549762e-19
414, 6, 4.393244e+02, 5.740891e-40, 4.183608e+01, -5.022065e-19, 1.355714e+02, -1.549762e-19
414, 7, 4.393244e+02, 5.740891e-40, 4.183608e+01, -5.022065e-19, 1.355714e+02, -1.549762e-19
414, 8, 4.393244e+02, 5.740891e-40, 4.183608e+01, -5.022065e-19, 1.355714e+02, -1.549762e-19
415, 1, 4.389780e+02, 5.735938e-40, 4.255924e+01, -5.017919e-19, 1.366842e+02, -1.562425e-19
415, 2, 4.389780e+02, 5.735938e-40, 4.255924e+01, -5.017919e-19, 1.366842e+02, -1.562425e-19
415, 3, 4.389780e+02, 5.735938e-40, 4.255924e+01, -5.017919e-19, 1.366842e+02, -1.562425e-19
415, 4, 4.389780e+02, 5.735938e-40, 4.255924e+01, -5.017919e-19, 1.366842e+02, -1.562425e-19
415, 5, 4.389780e+02, 5.735938e-40, 4.255924e+01, -5.017919e-19, 1.366842e+02, -1.562425e-19
415, 6, 4.389780e+02, 5.735938e-40, 4.255924e+01, -5.017919e-19, 1.366842e+02, -1.562425e-19
415, 7, 4.389780e+02, 5.735938e-40, 4.255924e+01, -5.017919e-19, 1.366842e+02, -1.562425e-19
415, 8, 4.389780e+02, 5.735938e-40, 4.255924e+01, -5.017919e-19, 1.366842e+02, -1.562425e-19
416, 1, 4.386840e+02, 5.729900e-40, 4.317835e+01, -5.013597e-19, 1.376287e+02, -1.572920e-19
416, 2, 4.386840e+02, 5.729900e-40, 4.317835e+01, -5.013597e-19, 1.376287e+02, -1.572920e-19
416, 3, 4.386840e+02, 5.729900e-40, 4.317835e+01, -5.013597e-19, 1.376287e+02, -1.572920e-19
416, 4, 4.386840e+02, 5.729900e-40, 4.317835e+01, -5.013597e-19, 1.376287e+02, -1.572920e-19
416, 5, 4.386840e+02, 5.729900e-40, 4.317835e+01, -5.013597e-19, 1.376287e+02, -1.572920e-19
416, 6, 4.386840e+02, 5.729900e-40, 4.317835e+01, -5.013597e-19, 1.376287e+02, -1.572920e-19
416, 7, 4.386840e+02, 5.729900e-40, 4.317835e+01, -5.013597e-19, 1.376287e+02, -1.572920e-19
416, 8, 4.386840e+02, 5.729900e-40, 4.317835e+01, -5.013597e-19, 1.376287e+02, -1.572920e-19
417, 1, 4.384856e+02, 5.734150e-40, 4.359197e+01, -5.014322e-19, 1.382550e+02, -1.581021e-19
417, 2, 4.384856e+02, 5.734150e-40, 4.359197e+01, -5.014322e-19, 1.382550e+02, -1.581021e-19
417, 3, 4.384856e+02, 5.734150e-40, 4.359197e+01, -5.014322e-19, 1.382550e+02, -1.581021e-19
417, 4, 4.384856e+02, 5.734150e-40, 4.359197e+01, -5.014322e-19, 1.382550e+02, -1.581021e-19
417, 5, 4.384856e+02, 5.734150e-40, 4.359197e+01, -5.014322e-19, 1.382550e+02, -1.581021e-19
417, 6, 4.384856e+02, 5.734150e-40, 4.359197e+01, -5.014322e-19, 1.382550e+02, -1.581021e-19
417, 7, 4.384856e+02, 5.734150e-40, 4.359197e+01, -5.014322e-19, 1.382550e+02, -1.581021e-19
417, 8, 4.384856e+02, 5.734150e-40, 4.359197e+01, -5.014322e-19, 1.382550e+02, -1.581021e-19
418, 1, 4.382429e+02, 5.726449e-40, 4.410598e+01, -5.009567e-19, 1.390293e+02, -1.589247e-19
418, 2, 4.382429e+02, 5.726449e-40, 4.410598e+01, -5.009567e-19, 1.390293e+02, -1.589247e-19
418, 3, 4.382429e+02, 5.726449e-40, 4.410598e+01, -5.009567e-19, 1.390293e+02, -1.589247e-19
418, 4, 4.382429e+02, 5.726449e-40, 4.410598e+01, -5.009567e-19, 1.390293e+02, -1.589247e-19
418, 5, 4.382429e+02, 5.726449e-40, 4.410598e+01, -5.009567e-19, 1.390293e+02, -1.589247e-19
418, 6, 4.382429e+02, 5.726449e-40, 4.410598e+01, -5.009567e-19, 1.390293e+02, -1.589247e-19
418, 7, 4.382429e+02, 5.726449e-40, 4.410598e+01, -5.009567e-19, 1.390293e+02, -1.589247e-19
418, 8, 4.382429e+02, 5.726449e-40, 4.410598e+01, -5.009567e-19, 1.390293e+02, -1.589247e-19
419, 1, 4.378894e+02, 5.721956e-40, 4.484748e+01, -5.005581e-19, 1.401365e+02, -1.601922e-19
419, 2, 4.378894e+02, 5.721956e-40, 4.484748e+01, -5.005581e-19, 1.401365e+02, -1.601922e-19
419, 3, 4.378894e+02, 5.721956e-40, 4.484748e+01, -5.005581e-19, 1.401365e+02, -1.601922e-19
419, 4, 4.378894e+02, 5.721956e-40, 4.484748e+01, -5.005581e-19, 1.401365e+02, -1.601922e-19
419, 5, 4.378894e+02, 5.721956e-40, 4.484748e+01, -5.005581e-19, 1.401365e+02, -1.601922e-19
419, 6, 4.378894e+02, 5.721956e-40, 4.484748e+01, -5.005581e-19, 1.401365e+02, -1.601922e-19
419, 7, 4.378894e+02, 5.721956e-40, 4.484748e+01, -5.005581e-19, 1.401365e+02, -1.601922e-19
419, 8, 4.378894e+02, 5.721956e-40, 4.484748e+01, -5.005581e-19, 1.401365e+02, -1.601922e-19
420, 1, 4.375323e+02, 5.717865e-40, 4.559473e+01, -5.001750e-19, 1.412415e+02, -1.614635e-19
420, 2, 4.375323e+02, 5.717865e-40, 4.559473e+01, -5.001750e-19, 1.412415e+02, -1.614635e-19
420, 3, 4.375323e+02, 5.717865e-40, 4.559473e+01, -5.001750e-19, 1.412415e+02, -1.614635e-19
420, 4, 4.375323e+02, 5.717865e-40, 4.559473e+01, -5.001750e-19, 1.412415e+02, -1.614635e-19
420, 5, 4.375323e+02, 5.717865e-40, 4.559473e+01, -5.001750e-19, 1.412415e+02, -1.614635e-19
420, 6, 4.375323e+02, 5.717865e-40, 4.559473e+01, -5.001750e-19, 1.412415e+02, -1.614635e-19
420, 7, 4.375323e+02, 5.717865e-40, 4.559473e+01, -5.001750e-19, 1.412415e+02, -1.614635e-19
420, 8, 4.375323e+02, 5.717865e-40, 4.559473e+01, -5.001750e-19, 1.412415e+02, -1.614635e-19
421, 1, 4.371758e+02, 5.711953e-40, 4.634813e+01, -4.997127e-19, 1.423456e+02, -1.627078e-19
421, 2, 4.371758e+02, 5.711953e-40, 4.634813e+01, -4.997127e-19, 1.423456e+02, -1.627078e-19
421, 3, 4.371758e+02, 5.711953e-40, 4.634813e+01, -4.997127e-19, 1.423456e+02, -1.627078e-19
421, 4, 4.371758e+02, 5.711953e-40, 4.634813e+01, -4.997127e-19, 1.423456e+02, -1.627078e-19
421, 5, 4.371758e+02, 5.711953e-40, 4.634813e+01, -4.997127e-19, 1.423456e+02, -1.627078e-19
421, 6, 4.371758e+02, 5.711953e-40, 4.634813e+01, -4.997127e-19, 1.423456e+02, -1.627078e-19
421, 7, 4.371758e+02, 5.711953e-40, 4.634813e+01, -4.997127e-19, 1.423456e+02, -1.627078e-19
421, 8, 4.371758e+02, 5.711953e-40, 4.634813e+01, -4.997127e-19, 1.423456e+02, -1.627078e-19
422, 1, 4.368158e+02, 5.706280e-40, 4.710725e+01, -4.992587e-19, 1.434475e+02, -1.639534e-19
422, 2, 4.368158e+02, 5.706280e-40, 4.710725e+01, -4.992587e-19, 1.434475e+02, -1.639534e-19
422, 3, 4.368158e+02, 5.706280e-40, 4.710725e+01, -4.992587e-19, 1.434475e+02, -1.639534e-19
422, 4, 4.368158e+02, 5.706280e-40, 4.710725e+01, -4.992587e-19, 1.434475e+02, -1.639534e-19
422, 5, 4.368158e+02, 5.706280e-40, 4.710725e+01, -4.992587e-19, 1.434475e+02, -1.639534e-19
422, 6, 4.368158e+02, 5.706280e-40, 4.710725e+01, -4.992587e-19, 1.434475e+02, -1.639534e-19
422, 7, 4.368158e+02, 5.706280e-40, 4.710725e+01, -4.992587e-19, 1.434475e+02, -1.639534e-19
422, 8, 4.368158e+02, 5.706280e-40, 4.710725e+01, -4.992587e-19, 1.434475e+02, -1.639534e-19
423, 1, 4.364523e+02, 5.703412e-40, 4.787209e+01, -4.989255e-19, 1.445472e+02, -1.652375e-19
423, 2, 4.364523e+02, 5.703412e-40, 4.787209e+01, -4.989255e-19, 1.445472e+02, -1.652375e-19
423, 3, 4.364523e+02, 5.703412e-40, 4.787209e+01, -4.989255e-19, 1.445472e+02, -1.652375e-19
423, 4, 4.364523e+02, 5.703412e-40, 4.787209e+01, -4.989255e-19, 1.445472e+02, -1.652375e-19
423, 5, 4.364523e+02, 5.703412e-40, 4.787209e+01, -4.989255e-19, 1.445472e+02, -1.652375e-19
423, 6, 4.364523e+02, 5.703412e-40, 4.787209e+01, -4.989255e-19, 1.445472e+02, -1.652375e-19
423, 7, 4.364523e+02, 5.703412e-40, 4.787209e+01, -4.989255e-19, 1.445472e+02, -1.652375e-19
423, 8, 4.364523e+02, 5.703412e-40, 4.787209e+01, -4.989255e-19, 1.445472e+02, -1.652375e-19
424, 1, 4.352190e+02, 5.688233e-40, 5.048219e+01, -4.975567e-19, 1.482255e+02, -1.694563e-19
424, 2, 4.352190e+02, 5.688233e-40, 5.048219e+01, -4.975567e-19, 1.482255e+02, -1.694563e-19
424, 3, 4.352190e+02, 5.688233e-40, 5.048219e+01, -4.975567e-19, 1.482255e+02, -1.694563e-19
424, 4, 4.352190e+02, 5.688233e-40, 5.048219e+01, -4.975567e-19, 1.482255e+02, -1.694563e-19
424, 5, 4.352190e+02, 5.688233e-40, 5.048219e+01, -4.975567e-19, 1.482255e+02, -1.694563e-19
424, 6, 4.352190e+02, 5.688233e-40, 5.048219e+01, -4.975567e-19, 1.482255e+02, -1.694563e-19
424, 7, 4.352190e+02, 5.688233e-40, 5.048219e+01, -4.975567e-19, 1.482255e+02, -1.694563e-19
424, 8, 4.352190e+02, 5.688233e-40, 5.048219e+01, -4.975567e-19, 1.482255e+02, -1.694563e-19
425, 1, 4.348438e+02, 5.682525e-40, 5.127213e+01, -4.970927e-19, 1.493163e+02, -1.706913e-19
425, 2, 4.348438e+02, 5.682525e-40, 5.127213e+01, -4.970927e-19, 1.493163e+02, -1.706913e-19
425, 3, 4.348438e+02, 5.682525e-40, 5.127213e+01, -4.970927e-19, 1.493163e+02, -1.706913e-19
425, 4, 4.348438e+02, 5.682525e-40, 5.127213e+01, -4.970927e-19, 1.493163e+02, -1.706913e-19
425, 5, 4.348438e+02, 5.682525e-40, 5.127213e+01, -4.970927e-19, 1.493163e+02, -1.706913e-19
425, 6, 4.348438e+02, 5.682525e-40, 5.127213e+01, -4.970927e-19, 1.493163e+02, -1.706913e-19
425, 7, 4.348438e+02, 5.682525e-40, 5.127213e+01, -4.970927e-19, 1.493163e+02, -1.706913e-19
425, 8, 4.348438e+02, 5.682525e-40, 5.127213e+01, -4.970927e-19, 1.493163e+02, -1.706913e-19
426, 1, 4.344693e+02, 5.676821e-40, 5.206820e+01, -4.966291e-19, 1.504062e+02, -1.719249e-19
426, 2, 4.344693e+02, 5.676821e-40, 5.206820e+01, -4.966291e-19, 1.504062e+02, -1.719249e-19
426, 3, 4.344693e+02, 5.676821e-40, 5.206820e+01, -4.966291e-19, 1.504062e+02, -1.719249e-19
426, 4, 4.344693e+02, 5.676821e-40, 5.206820e+01, -4.966291e-19, 1.504062e+02, -1.719249e-19
426, 5, 4.344693e+02, 5.676821e-40, 5.206820e+01, -4.966291e-19, 1.504062e+02, -1.719249e-19
426, 6, 4.344693e+02, 5.676821e-40, 5.206820e+01, -4.966291e-19, 1.504062e+02, -1.719249e-19
426, 7, 4.344693e+02, 5.676821e-40, 5.206820e+01, -4.966291e-19, 1.504062e+02, -1.719249e-19
426, 8, 4.344693e+02, 5.676821e-40, 5.206820e+01, -4.966291e-19, 1.504062e+02, -1.719249e-19
427, 1, 4.340914e+02, 5.670965e-40, 5.286990e+01, -4.961569e-19, 1.514938e+02, -1.731541e-19
427, 2, 4.340914e+02, 5.670965e-40, 5.286990e+01, -4.961569e-19, 1.514938e+02, -1.731541e-19
427, 3, 4.340914e+02, 5.670965e-40, 5.286990e+01, -4.961569e-19, 1.514938e+02, -1.731541e-19
427, 4, 4.340914e+02, 5.670965e-40, 5.286990e+01, -4.961569e-19, 1.514938e+02, -1.731541e-19
427, 5, 4.340914e+02, 5.670965e-40, 5.286990e+01, -4.961569e-19, 1.514938e+02, -1.731541e-19
427, 6, 4.340914e+02, 5.670965e-40, 5.286990e+01, -4.961569e-19, 1.514938e+02, -1.731541e-19
427, 7, 4.340914e+02, 5.670965e-40, 5.286990e+01, -4.961569e-19, 1.514938e+02, -1.731541e-19
427, 8, 4.340914e+02, 5.670965e-40, 5.286990e+01, -4.961569e-19, 1.514938e+02, -1.731541e-19
428, 1, 4.337121e+02, 5.669505e-40, 5.367746e+01, -4.958763e-19, 1.525797e+02, -1.744490e-19
428, 2, 4.337121e+02, 5.669505e-40, 5.367746e+01, -4.958763e-19, 1.525797e+02, -1.744490e-19
428, 3, 4.337121e+02, 5.669505e-40, 5.367746e+01, -4.958763e-19, 1.525797e+02, -1.744490e-19
428, 4, 4.337121e+02, 5.669505e-40, 5.367746e+01, -4.958763e-19, 1.525797e+02, -1.744490e-19
428, 5, 4.337121e+02, 5.669505e-40, 5.367746e+01, -4.958763e-19, 1.525797e+02, -1.744490e-19
428, 6, 4.337121e+02, 5.669505e-40, 5.367746e+01, -4.958763e-19, 1.525797e+02, -1.744490e-19
428, 7, 4.337121e+02, 5.669505e-40, 5.367746e+01, -4.958763e-19, 1.525797e+02, -1.744490e-19
428, 8, 4.337121e+02, 5.669505e-40, 5.367746e+01, -4.958763e-19, 1.525797e+02, -1.744490e-19
429, 1, 4.333275e+02, 5.663087e-40, 5.449039e+01, -4.953757e-19, 1.536626e+02, -1.756655e-19
429, 2, 4.333275e+02, 5.663087e-40, 5.449039e+01, -4.953757e-19, 1.536626e+02, -1.756655e-19
429, 3, 4.333275e+02, 5.663087e-40, 5.449039e+01, -4.953757e-19, 1.536626e+02, -1.756655e-19
429, 4, 4.333275e+02, 5.663087e-40, 5.449039e+01, -4.953757e-19, 1.536626e+02, -1.756655e-19
429, 5, 4.333275e+02, 5.663087e-40, 5.449039e+01, -4.953757e-19, 1.536626e+02, -1.756655e-19
429, 6, 4.333275e+02, 5.663087e-40, 5.449039e+01, -4.953757e-19, 1.536626e+02, -1.756655e-19
429, 7, 4.333275e+02, 5.663087e-40, 5.449039e+01, -4.953757e-19, 1.536626e+02, -1.756655e-19
429, 8, 4.333275e+02, 5.663087e-40, 5.449039e+01, -4.953757e-19, 1.536626e+02, -1.756655e-19
430, 1, 4.330615e+02, 5.665938e-40, 5.505902e+01, -4.953483e-19, 1.544148e+02, -1.766242e-19
430, 2, 4.330615e+02, 5.665938e-40, 5.505902e+01, -4.953483e-19, 1.544148e+02, -1.766242e-19
430, 3, 4.330615e+02, 5.665938e-40, 5.505902e+01, -4.953483e-19, 1.544148e+02, -1.766242e-19
430, 4, 4.330615e+02, 5.665938e-40, 5.505902e+01, -4.953483e-19, 1.544148e+02, -1.766242e-19
430, 5, 4.330615e+02, 5.665938e-40, 5.505902e+01, -4.953483e-19, 1.544148e+02, -1.766242e-19
430, 6, 4.330615e+02, 5.665938e-40, 5.505902e+01, -4.953483e-19, 1.544148e+02, -1.766242e-19
430, 7, 4.330615e+02, 5.665938e-40, 5.505902e+01, -4.953483e-19, 1.544148e+02, -1.766242e-19
430, 8, 4.330615e+02, 5.665938e-40, 5.505902e+01, -4.953483e-19, 1.544148e+02, -1.766242e-19
431, 1, 4.328412e+02, 5.654186e-40, 5.552600e+01, -4.947085e-19, 1.550288e+02, -1.771876e-19
431, 2, 4.328412e+02, 5.654186e-40, 5.552600e+01, -4.947085e-19, 1.550288e+02, -1.771876e-19
431, 3, 4.328412e+02, 5.654186e-40, 5.552600e+01, -4.947085e-19, 1.550288e+02, -1.771876e-19
431, 4, 4.328412e+02, 5.654186e-40, 5.552600e+01, -4.947085e-19, 1.550288e+02, -1.771876e-19
431, 5, 4.328412e+02, 5.654186e-40, 5.552600e+01, -4.947085e-19, 1.550288e+02, -1.771876e-19
431, 6, 4.328412e+02, 5.654186e-40, 5.552600e+01, -4.947085e-19, 1.550288e+02, -1.771876e-19
431, 7, 4.328412e+02, 5.654186e-40, 5.552600e+01, -4.947085e-19, 1.550288e+02, -1.771876e-19
431, 8, 4.328412e+02, 5.654186e-40, 5.552600e+01, -4.947085e-19, 1.550288e+02, -1.771876e-19
432, 1, 4.325121e+02, 5.653426e-40, 5.622511e+01, -4.944871e-19, 1.559424e+02, -1.782875e-19
432, 2, 4.325121e+02, 5.653426e-40, 5.622511e+01, -4.944871e-19, 1.559424e+02, -1.782875e-19
432, 3, 4.325121e+02, 5.653426e-40, 5.622511e+01, -4.944871e-19, 1.559424e+02, -1.782875e-19
432, 4, 4.325121e+02, 5.653426e-40, 5.622511e+01, -4.944871e-19, 1.559424e+02, -1.782875e-19
432, 5, 4.325121e+02, 5.653426e-40, 5.622511e+01, -4.944871e-19, 1.559424e+02, -1.782875e-19
432, 6, 4.325121e+02, 5.653426e-40, 5.622511e+01, -4.944871e-19, 1.559424e+02, -1.782875e-19
432, 7, 4.325121e+02, 5.653426e-40, 5.622511e+01, -4.944871e-19, 1.559424e+02, -1.782875e-19
432, 8, 4.325121e+02, 5.653426e-40, 5.622511e+01, -4.944871e-19, 1.559424e+02, -1.782875e-19
433, 1, 4.321228e+02, 5.648869e-40, 5.705613e+01, -4.940653e-19, 1.570199e+02, -1.795279e-19
433, 2, 4.321228e+02, 5.648869e-40, 5.705613e+01, -4.940653e-19, 1.570199e+02, -1.795279e-19
433, 3, 4.321228e+02, 5.648869e-40, 5.705613e+01, -4.940653e-19, 1.570199e+02, -1.795279e-19
433, 4, 4.321228e+02, 5.648869e-40, 5.705613e+01, -4.940653e-19, 1.570199e+02, -1.795279e-19
433, 5, 4.321228e+02, 5.648869e-40, 5.705613e+01, -4.940653e-19, 1.570199e+02, -1.795279e-19
433, 6, 4.321228e+02, 5.648869e-40, 5.705613e+01, -4.940653e-19, 1.570199e+02, -1.795279e-19
433, 7, 4.321228e+02, 5.648869e-40, 5.705613e+01, -4.940653e-19, 1.570199e+02, -1.795279e-19
433, 8, 4.321228e+02, 5.648869e-40, 5.705613e+01, -4.940653e-19, 1.570199e+02, -1.795279e-19
434, 1, 4.317302e+02, 5.643724e-40, 5.789272e+01, -4.936158e-19, 1.580950e+02, -1.807569e-19
434, 2, 4.317302e+02, 5.643724e-40, 5.789272e+01, -4.936158e-19, 1.580950e+02, -1.807569e-19
434, 3, 4.317302e+02, 5.643724e-40, 5.789272e+01, -4.936158e-19, 1.580950e+02, -1.807569e-19
434, 4, 4.317302e+02, 5.643724e-40, 5.789272e+01, -4.936158e-19, 1.580950e+02, -1.807569e-19
434, 5, 4.317302e+02, 5.643724e-40, 5.789272e+01, -4.936158e-19, 1.580950e+02, -1.807569e-19
434, 6, 4.317302e+02, 5.643724e-40, 5.789272e+01, -4.936158e-19, 1.580950e+02, -1.807569e-19
434, 7, 4.317302e+02, 5.643724e-40, 5.789272e+01, -4.936158e-19, 1.580950e+02, -1.807569e-19
434, 8, 4.317302e+02, 5.643724e-40, 5.789272e+01, -4.936158e-19, 1.580950e+02, -1.807569e-19
435, 1, 4.313362e+02, 5.637834e-40, 5.873511e+01, -4.931331e-19, 1.591684e+02, -1.819722e-19
435, 2, 4.313362e+02, 5.637834e-40, 5.873511e+01, -4.931331e-19, 1.591684e+02, -1.819722e-19
435, 3, 4.313362e+02, 5.637834e-40, 5.873511e+01, -4.931331e-19, 1.591684e+02, -1.819722e-19
435, 4, 4.313362e+02, 5.637834e-40, 5.873511e+01, -4.931331e-19, 1.591684e+02, -1.819722e-19
435, 5, 4.313362e+02, 5.637834e-40, 5.873511e+01, -4.931331e-19, 1.591684e+02, -1.819722e-19
435, 6, 4.313362e+02, 5.637834e-40, 5.873511e+01, -4.931331e-19, 1.591684e+02, -1.819722e-19
435, 7, 4.313362e+02, 5.637834e-40, 5.873511e+01, -4.931331e-19, 1.591684e+02, -1.819722e-19
435, 8, 4.313362e+02, 5.637834e-40, 5.873511e+01, -4.931331e-19, 1.591684e+02, -1.819722e-19
436, 1, 4.309390e+02, 5.631215e-40, 5.958304e+01, -4.926165e-19, 1.602394e+02, -1.831734e-19
436, 2, 4.309390e+02, 5.631215e-40, 5.958304e+01, -4.926165e-19, 1.602394e+02, -1.831734e-19
436, 3, 4.309390e+02, 5.631215e-40, 5.958304e+01, -4.926165e-19, 1.602394e+02, -1.831734e-19
436, 4, 4.309390e+02, 5.631215e-40, 5.958304e+01, -4.926165e-19, 1.602394e+02, -1.831734e-19
436, 5, 4.309390e+02, 5.631215e-40, 5.958304e+01, -4.926165e-19, 1.602394e+02, -1.831734e-19
436, 6, 4.309390e+02, 5.631215e-40, 5.958304e+01, -4.926165e-19, 1.602394e+02, -1.831734e-19
436, 7, 4.309390e+02, 5.631215e-40, 5.958304e+01, -4.926165e-19, 1.602394e+02, -1.831734e-19
436, 8, 4.309390e+02, 5.631215e-40, 5.958304e+01, -4.926165e-19, 1.602394e+02, -1.831734e-19
437, 1, 4.306004e+02, 5.626891e-40, 6.030736e+01, -4.922338e-19, 1.611470e+02, -1.842126e-19
437, 2, 4.306004e+02, 5.626891e-40, 6.030736e+01, -4.922338e-19, 1.611470e+02, -1.842126e-19
437, 3, 4.306004e+02, 5.626891e-40, 6.030736e+01, -4.922338e-19, 1.611470e+02, -1.842126e-19
437, 4, 4.306004e+02, 5.626891e-40, 6.030736e+01, -4.922338e-19, 1.611470e+02, -1.842126e-19
437, 5, 4.306004e+02, 5.626891e-40, 6.030736e+01, -4.922338e-19, 1.611470e+02, -1.842126e-19
437, 6, 4.306004e+02, 5.626891e-40, 6.030736e+01, -4.922338e-19, 1.611470e+02, -1.842126e-19
437, 7, 4.306004e+02, 5.626891e-40, 6.030736e+01, -4.922338e-19, 1.611470e+02, -1.842126e-19
437, 8, 4.306004e+02, 5.626891e-40, 6.030736e+01, -4.922338e-19, 1.611470e+02, -1.842126e-19
438, 1, 4.303717e+02, 5.619518e-40, 6.079386e+01, -4.917806e-19, 1.617528e+02, -1.848329e-19
438, 2, 4.303717e+02, 5.619518e-40, 6.079386e+01, -4.917806e-19, 1.617528e+02, -1.848329e-19
438, 3, 4.303717e+02, 5.619518e-40, 6.079386e+01, -4.917806e-19, 1.617528e+02, -1.848329e-19
438, 4, 4.303717e+02, 5.619518e-40, 6.079386e+01, -4.917806e-19, 1.617528e+02, -1.848329e-19
438, 5, 4.303717e+02, 5.619518e-40, 6.079386e+01, -4.917806e-19, 1.617528e+02, -1.848329e-19
438, 6, 4.303717e+02, 5.619518e-40, 6.079386e+01, -4.917806e-19, 1.617528e+02, -1.848329e-19
438, 7, 4.303717e+02, 5.619518e-40, 6.079386e+01, -4.917806e-19, 1.617528e+02, -1.848329e-19
438, 8, 4.303717e+02, 5.619518e-40, 6.079386e+01, -4.917806e-19, 1.617528e+02, -1.848329e-19
439, 1, 4.300956e+02, 5.620388e-40, 6.139068e+01, -4.916609e-19, 1.624926e+02, -1.857524e-19
439, 2, 4.300956e+02, 5.620388e-40, 6.139068e+01, -4.916609e-19, 1.624926e+02, -1.857524e-19
439, 3, 4.300956e+02, 5.620388e-40, 6.139068e+01, -4.916609e-19, 1.624926e+02, -1.857524e-19
439, 4, 4.300956e+02, 5.620388e-40, 6.139068e+01, -4.916609e-19, 1.624926e+02, -1.857524e-19
439, 5, 4.300956e+02, 5.620388e-40, 6.139068e+01, -4.916609e-19, 1.624926e+02, -1.857524e-19
439, 6, 4.300956e+02, 5.620388e-40, 6.139068e+01, -4.916609e-19, 1.624926e+02, -1.857524e-19
439, 7, 4.300956e+02, 5.620388e-40, 6.139068e+01, -4.916609e-19, 1.624926e+02, -1.857524e-19
439, 8, 4.300956e+02, 5.620388e-40, 6.139068e+01, -4.916609e-19, 1.624926e+02, -1.857524e-19
440, 1, 4.296919e+02, 5.616513e-40, 6.225625e+01, -4.912607e-19, 1.635574e+02, -1.869928e-19
440, 2, 4.296919e+02, 5.616513e-40, 6.225625e+01, -4.912607e-19, 1.635574e+02, -1.869928e-19
440, 3, 4.296919e+02, 5.616513e-40, 6.225625e+01, -4.912607e-19, 1.635574e+02, -1.869928e-19
440, 4, 4.296919e+02, 5.616513e-40, 6.225625e+01, -4.912607e-19, 1.635574e+02, -1.869928e-19
440, 5, 4.296919e+02, 5.616513e-40, 6.225625e+01, -4.912607e-19, 1.635574e+02, -1.869928e-19
440, 6, 4.296919e+02, 5.616513e-40, 6.225625e+01, -4.912607e-19, 1.635574e+02, -1.869928e-19
440, 7, 4.296919e+02, 5.616513e-40, 6.225625e+01, -4.912607e-19, 1.635574e+02, -1.869928e-19
440, 8, 4.296919e+02, 5.616513e-40, 6.225625e+01, -4.912607e-19, 1.635574e+02, -1.869928e-19
441, 1, 4.292850e+02, 5.611570e-40, 6.312730e+01, -4.908119e-19, 1.646196e+02, -1.882135e-19
441, 2, 4.292850e+02, 5.611570e-40, 6.312730e+01, -4.908119e-19, 1.646196e+02, -1.882135e-19
441, 3, 4.292850e+02, 5.611570e-40, 6.312730e+01, -4.908119e-19, 1.646196e+02, -1.882135e-19
441, 4, 4.292850e+02, 5.611570e-40, 6.312730e+01, -4.908119e-19, 1.646196e+02, -1.882135e-19
441, 5, 4.292850e+02, 5.611570e-40, 6.312730e+01, -4.908119e-19, 1.646196e+02, -1.882135e-19
441, 6, 4.292850e+02, 5.611570e-40, 6.312730e+01, -4.908119e-19, 1.646196e+02, -1.882135e-19
441, 7, 4.292850e+02, 5.611570e-40, 6.312730e+01, -4.908119e-19, 1.646196e+02, -1.882135e-19
441, 8, 4.292850e+02, 5.611570e-40, 6.312730e+01, -4.908119e-19, 1.646196e+02, -1.882135e-19
442, 1, 4.288768e+02, 5.605621e-40, 6.400411e+01, -4.903183e-19, 1.656801e+02, -1.894156e-19
442, 2, 4.288768e+02, 5.605621e-40, 6.400411e+01, -4.903183e-19, 1.656801e+02, -1.894156e-19
442, 3, 4.288768e+02, 5.605621e-40, 6.400411e+01, -4.903183e-19, 1.656801e+02, -1.894156e-19
442, 4, 4.288768e+02, 5.605621e-40, 6.400411e+01, -4.903183e-19, 1.656801e+02, -1.894156e-19
442, 5, 4.288768e+02, 5.605621e-40, 6.400411e+01, -4.903183e-19, 1.656801e+02, -1.894156e-19
442, 6, 4.288768e+02, 5.605621e-40, 6.400411e+01, -4.903183e-19, 1.656801e+02, -1.894156e-19
442, 7, 4.288768e+02, 5.605621e-40, 6.400411e+01, -4.903183e-19, 1.656801e+02, -1.894156e-19
442, 8, 4.288768e+02, 5.605621e-40, 6.400411e+01, -4.903183e-19, 1.656801e+02, -1.894156e-19
443, 1, 4.284942e+02, 3.502385e-30, 6.482842e+01, 3.873954e-14, 1.666691e+02, 1.506831e-14
443, 2, 4.284942e+02, 3.502385e-30, 6.482842e+01, 3.873954e-14, 1.666691e+02, 1.506831e-14
443, 3, 4.284942e+02, 3.502385e-30, 6.482842e+01, 3.873954e-14, 1.666691e+02, 1.506831e-14
443, 4, 4.284942e+02, 3.502385e-30, 6.482842e+01, 3.873954e-14, 1.666691e+02, 1.506831e-14
443, 5, 4.284942e+02, 3.502385e-30, 6.482842e+01, 3.873954e-14, 1.666691e+02, 1.506831e-14
443, 6, 4.284942e+02, 3.502385e-30, 6.482842e+01, 3.873954e-14, 1.666691e+02, 1.506831e-14
443, 7, 4.284942e+02, 3.502385e-30, 6.482842e+01, 3.873954e-14, 1.666691e+02, 1.506831e-14
443, 8, 4.284942e+02, 3.502385e-30, 6.482842e+01, 3.873954e-14, 1.666691e+02, 1.506831e-14
444, 1, 3.570838e+02, 2.325888e-30, 1.159171e+02, 2.881904e-14, 2.034505e+02, 1.641981e-14
444, 2, 3.570838e+02, 2.325888e-30, 1.159171e+02, 2.881904e-14, 2.034505e+02, 1.641981e-14
444, 3, 3.570838e+02, 2.325888e-30, 1.159171e+02, 2.881904e-14, 2.034505e+02, 1.641981e-14
444, 4, 3.570838e+02, 2.325888e-30, 1.159171e+02, 2.881904e-14, 2.034505e+02, 1.641981e-14
444, 5, 3.570838e+02, 2.325888e-30, 1.159171e+02, 2.881904e-14, 2.034505e+02, 1.641981e-14
444, 6, 3.570838e+02, 2.325888e-30, 1.159171e+02, 2.881904e-14, 2.034505e+02, 1.641981e-14
444, 7, 3.570838e+02, 2.325888e-30, 1.159171e+02, 2.881904e-14, 2.034505e+02, 1.641981e-14
444, 8, 3.570838e+02, 2.325888e-30, 1.159171e+02, 2.881904e-14, 2.034505e+02, 1.641981e-14
445, 1, 3.568363e+02, 2.323682e-30, 1.164919e+02, 2.879539e-14, 2.038836e+02, 1.645266e-14
445, 2, 3.568363e+02, 2.323682e-30, 1.164919e+02, 2.879539e-14, 2.038836e+02, 1.645266e-14
445, 3, 3.568363e+02, 2.323682e-30, 1.164919e+02, 2.879539e-14, 2.038836e+02, 1.645266e-14
445, 4, 3.568363e+02, 2.323682e-30, 1.164919e+02, 2.879539e-14, 2.038836e+02, 1.645266e-14
445, 5, 3.568363e+02, 2.323682e-30, 1.164919e+02, 2.879539e-14, 2.038836e+02, 1.645266e-14
445, 6, 3.568363e+02, 2.323682e-30, 1.164919e+02, 2.879539e-14, 2.038836e+02, 1.645266e-14
445, 7, 3.568363e+02, 2.323682e-30, 1.164919e+02, 2.879539e-14, 2.038836e+02, 1.645266e-14
445, 8, 3.568363e+02, 2.323682e-30, 1.164919e+02, 2.879539e-14, 2.038836e+02, 1.645266e-14
446, 1, 3.566649e+02, 2.330852e-30, 1.168853e+02, 2.883285e-14, 2.041786e+02, 1.650583e-14
446, 2, 3.566649e+02, 2.330852e-30, 1.168853e+02, 2.883285e-14, 2.041786e+02, 1.650583e-14
446, 3, 3.566649e+02, 2.330852e-30, 1.168853e+02, 2.883285e-14, 2.041786e+02, 1.650583e-14
446, 4, 3.566649e+02, 2.330852e-30, 1.168853e+02, 2.883285e-14, 2.041786e+02, 1.650583e-14
446, 5, 3.566649e+02, 2.330852e-30, 1.168853e+02, 2.883285e-14, 2.041786e+02, 1.650583e-14
446, 6, 3.566649e+02, 2.330852e-30, 1.168853e+02, 2.883285e-14, 2.041786e+02, 1.650583e-14
446, 7, 3.566649e+02, 2.330852e-30, 1.168853e+02, 2.883285e-14, 2.041786e+02, 1.650583e-14
446, 8, 3.566649e+02, 2.330852e-30, 1.168853e+02, 2.883285e-14, 2.041786e+02, 1.650583e-14
447, 1, 4.109743e+02, 6.994286e-37, 2.305626e-03, 1.695427e-17, -9.734233e-01, -4.015745e-20
447, 2, 4.109743e+02, 6.994286e-37, 2.305626e-03, 1.695427e-17, -9.734233e-01, -4.015745e-20
447, 3, 4.109743e+02, 6.994286e-37, 2.305626e-03, 1.695427e-17, -9.734233e-01, -4.015745e-20
447, 4, 4.109743e+02, 6.994286e-37, 2.305626e-03, 1.695427e-17, -9.734233e-01, -4.015745e-20
447, 5, 4.109743e+02, 6.994286e-37, 2.305626e-03, 1.695427e-17, -9.734233e-01, -4.015745e-20
447, 6, 4.109743e+02, 6.994286e-37, 2.305626e-03, 1.695427e-17, -9.734233e-01, -4.015745e-20
447, 7, 4.109743e+02, 6.994286e-37, 2.305626e-03, 1.695427e-17, -9.734233e-01, -4.015745e-20
447, 8, 4.109743e+02, 6.994286e-37, 2.305626e-03, 1.695427e-17, -9.734233e-01, -4.015745e-20
448, 1, 4.109766e+02, 1.386183e-39, 3.021187e-08, -7.547773e-19, -3.523687e-03, 6.471413e-24
448, 2, 4.109766e+02, 1.386183e-39, 3.021187e-08, -7.547773e-19, -3.523687e-03, 6.471413e-24
448, 3, 4.109766e+02, 1.386183e-39, 3.021187e-08, -7.547773e-19, -3.523687e-03, 6.471413e-24
448, 4, 4.109766e+02, 1.386183e-39, 3.021187e-08, -7.547773e-19, -3.523687e-03, 6.471413e-24
448, 5, 4.109766e+02, 1.386183e-39, 3.021187e-08, -7.547773e-19, -3.523687e-03, 6.471413e-24
448, 6, 4.109766e+02, 1.386183e-39, 3.021187e-08, -7.547773e-19, -3.523687e-03, 6.471413e-24
448, 7, 4.109766e+02, 1.386183e-39, 3.021187e-08, -7.547773e-19, -3.523687e-03, 6.471413e-24
448, 8, 4.109766e+02, 1.386183e-39, 3.021187e-08, -7.547773e-19, -3.523687e-03, 6.471413e-24
449, 1, 4.109743e+02, 1.627562e-40, 2.288729e-03, -2.586284e-19, 9.698498e-01, -6.103317e-22
449, 2, 4.109743e+02, 1.627562e-40, 2.288729e-03, -2.586284e-19, 9.698498e-01, -6.103317e-22
449, 3, 4.109743e+02, 1.627562e-40, 2.288729e-03, -2.586284e-19, 9.698498e-01, -6.103317e-22
449, 4, 4.109743e+02, 1.627562e-40, 2.288729e-03, -2.586284e-19, 9.698498e-01, -6.103317e-22
449, 5, 4.109743e+02, 1.627562e-40, 2.288729e-03, -2.586284e-19, 9.698498e-01, -6.103317e-22
449, 6, 4.109743e+02, 1.627562e-40, 2.288729e-03, -2.586284e-19, 9.698498e-01, -6.103317e-22
449, 7, 4.109743e+02, 1.627562e-40, 2.288729e-03, -2.586284e-19, 9.698498e-01, -6.103317e-22
449, 8, 4.109743e+02, 1.627562e-40, 2.288729e-03, -2.586284e-19, 9.698498e-01, -6.103317e-22
450, 1, 4.120602e+02, 3.415183e-40, 7.799767e+01, -3.751348e-19, -1.792756e+02, 1.632104e-19
450, 2, 4.120602e+02, 3.415183e-40, 7.799767e+01, -3.751348e-19, -1.792756e+02, 1.632104e-19
450, 3, 4.120602e+02, 3.415183e-40, 7.799767e+01, -3.751348e-19, -1.792756e+02, 1.632104e-19
450, 4, 4.120602e+02, 3.415183e-40, 7.799767e+01, -3.751348e-19, -1.792756e+02, 1.632104e-19
450, 5, 4.120602e+02, 3.415183e-40, 7.799767e+01, -3.751348e-19, -1.792756e+02, 1.632104e-19
450, 6, 4.120602e+02, 3.415183e-40, 7.799767e+01, -3.751348e-19, -1.792756e+02, 1.632104e-19
450, 7, 4.120602e+02, 3.415183e-40, 7.799767e+01, -3.751348e-19, -1.792756e+02, 1.632104e-19
450, 8, 4.120602e+02, 3.415183e-40, 7.799767e+01, -3.751348e-19, -1.792756e+02, 1.632104e-19
451, 1, 4.122003e+02, 8.597929e-39, 7.768938e+01, -1.882570e-18, -1.789514e+02, 8.172930e-19
451, 2, 4.122003e+02, 8.597929e-39, 7.768938e+01, -1.882570e-18, -1.789514e+02, 8.172930e-19
451, 3, 4.122003e+02, 8.597929e-39, 7.768938e+01, -1.882570e-18, -1.789514e+02, 8.172930e-19
451, 4, 4.122003e+02, 8.597929e-39, 7.768938e+01, -1.882570e-18, -1.789514e+02, 8.172930e-19
451, 5, 4.122003e+02, 8.597929e-39, 7.768938e+01, -1.882570e-18, -1.789514e+02, 8.172930e-19
451, 6, 4.122003e+02, 8.597929e-39, 7.768938e+01, -1.882570e-18, -1.789514e+02, 8.172930e-19
451, 7, 4.122003e+02, 8.597929e-39, 7.768938e+01, -1.882570e-18, -1.789514e+02, 8.172930e-19
451, 8, 4.122003e+02, 8.597929e-39, 7.768938e+01, -1.882570e-18, -1.789514e+02, 8.172930e-19
452, 1, 4.124711e+02, 8.595334e-39, 7.709802e+01, -1.882904e-18, -1.783275e+02, 8.140536e-19
452, 2, 4.124711e+02, 8.595334e-39, 7.709802e+01, -1.882904e-18, -1.783275e+02, 8.140536e-19
452, 3, 4.124711e+02, 8.595334e-39, 7.709802e+01, -1.882904e-18, -1.783275e+02, 8.140536e-19
452, 4, 4.124711e+02, 8.595334e-39, 7.709802e+01, -1.882904e-18, -1.783275e+02, 8.140536e-19
452, 5, 4.124711e+02, 8.595334e-39, 7.709802e+01, -1.882904e-18, -1.783275e+02, 8.140536e-19
452, 6, 4.124711e+02, 8.595334e-39, 7.709802e+01, -1.882904e-18, -1.783275e+02, 8.140536e-19
452, 7, 4.124711e+02, 8.595334e-39, 7.709802e+01, -1.882904e-18, -1.783275e+02, 8.140536e-19
452, 8, 4.124711e+02, 8.595334e-39, 7.709802e+01, -1.882904e-18, -1.783275e+02, 8.140536e-19
453, 1, 4.136954e+02, 3.583837e-40, 7.442067e+01, -3.850477e-19, -1.754636e+02, 1.633131e-19
453, 2, 4.136954e+02, 3.583837e-40, 7.442067e+01, -3.850477e-19, -1.754636e+02, 1.633131e-19
453, 3, 4.136954e+02, 3.583837e-40, 7.442067e+01, -3.850477e-19, -1.754636e+02, 1.633131e-19
453, 4, 4.136954e+02, 3.583837e-40, 7.442067e+01, -3.850477e-19, -1.754636e+02, 1.633131e-19
453, 5, 4.136954e+02, 3.583837e-40, 7.442067e+01, -3.850477e-19, -1.754636e+02, 1.633131e-19
453, 6, 4.136954e+02, 3.583837e-40, 7.442067e+01, -3.850477e-19, -1.754636e+02, 1.633131e-19
453, 7, 4.136954e+02, 3.583837e-40, 7.442067e+01, -3.850477e-19, -1.754636e+02, 1.633131e-19
453, 8, 4.136954e+02, 3.583837e-40, 7.442067e+01, -3.850477e-19, -1.754636e+02, 1.633131e-19
454, 1, 4.138558e+02, 1.362288e-40, 7.406745e+01, -2.374428e-19, -1.750807e+02, 1.004496e-19
454, 2, 4.138558e+02, 1.362288e-40, 7.406745e+01, -2.374428e-19, -1.750807e+02, 1.004496e-19
454, 3, 4.138558e+02, 1.362288e-40, 7.406745e+01, -2.374428e-19, -1.750807e+02, 1.004496e-19
454, 4, 4.138558e+02, 1.362288e-40, 7.406745e+01, -2.374428e-19, -1.750807e+02, 1.004496e-19
454, 5, 4.138558e+02, 1.362288e-40, 7.406745e+01, -2.374428e-19, -1.750807e+02, 1.004496e-19
454, 6, 4.138558e+02, 1.362288e-40, 7.406745e+01, -2.374428e-19, -1.750807e+02, 1.004496e-19
454, 7, 4.138558e+02, 1.362288e-40, 7.406745e+01, -2.374428e-19, -1.750807e+02, 1.004496e-19
454, 8, 4.138558e+02, 1.362288e-40, 7.406745e+01, -2.374428e-19, -1.750807e+02, 1.004496e-19
455, 1, 4.140776e+02, 4.758091e-39, 7.359000e+01, -1.403645e-18, -1.745622e+02, 5.917330e-19
455, 2, 4.140776e+02, 4.758091e-39, 7.359000e+01, -1.403645e-18, -1.745622e+02, 5.917330e-19
455, 3, 4.140776e+02, 4.758091e-39, 7.359000e+01, -1.403645e-18, -1.745622e+02, 5.917330e-19
455, 4, 4.140776e+02, 4.758091e-39, 7.359000e+01, -1.403645e-18, -1.745622e+02, 5.917330e-19
455, 5, 4.140776e+02, 4.758091e-39, 7.359000e+01, -1.403645e-18, -1.745622e+02, 5.917330e-19
455, 6, 4.140776e+02, 4.758091e-39, 7.359000e+01, -1.403645e-18, -1.745622e+02, 5.917330e-19
455, 7, 4.140776e+02, 4.758091e-39, 7.359000e+01, -1.403645e-18, -1.745622e+02, 5.917330e-19
455, 8, 4.140776e+02, 4.758091e-39, 7.359000e+01, -1.403645e-18, -1.745622e+02, 5.917330e-19
456, 1, 4.143791e+02, 4.720652e-39, 7.293198e+01, -1.398621e-18, -1.738433e+02, 5.867593e-19
456, 2, 4.143791e+02, 4.720652e-39, 7.293198e+01, -1.398621e-18, -1.738433e+02, 5.867593e-19
456, 3, 4.143791e+02, 4.720652e-39, 7.293198e+01, -1.398621e-18, -1.738433e+02, 5.867593e-19
456, 4, 4.143791e+02, 4.720652e-39, 7.293198e+01, -1.398621e-18, -1.738433e+02, 5.867593e-19
456, 5, 4.143791e+02, 4.720652e-39, 7.293198e+01, -1.398621e-18, -1.738433e+02, 5.867593e-19
456, 6, 4.143791e+02, 4.720652e-39, 7.293198e+01, -1.398621e-18, -1.738433e+02, 5.867593e-19
456, 7, 4.143791e+02, 4.720652e-39, 7.293198e+01, -1.398621e-18, -1.738433e+02, 5.867593e-19
456, 8, 4.143791e+02, 4.720652e-39, 7.293198e+01, -1.398621e-18, -1.738433e+02, 5.867593e-19
457, 1, 4.145954e+02, 1.276932e-40, 7.246011e+01, -2.300891e-19, -1.733252e+02, 9.619075e-20
457, 2, 4.145954e+02, 1.276932e-40, 7.246011e+01, -2.300891e-19, -1.733252e+02, 9.619075e-20
457, 3, 4.145954e+02, 1.276932e-40, 7.246011e+01, -2.300891e-19, -1.733252e+02, 9.619075e-20
457, 4, 4.145954e+02, 1.276932e-40, 7.246011e+01, -2.300891e-19, -1.733252e+02, 9.619075e-20
457, 5, 4.145954e+02, 1.276932e-40, 7.246011e+01, -2.300891e-19, -1.733252e+02, 9.619075e-20
457, 6, 4.145954e+02, 1.276932e-40, 7.246011e+01, -2.300891e-19, -1.733252e+02, 9.619075e-20
457, 7, 4.145954e+02, 1.276932e-40, 7.246011e+01, -2.300891e-19, -1.733252e+02, 9.619075e-20
457, 8, 4.145954e+02, 1.276932e-40, 7.246011e+01, -2.300891e-19, -1.733252e+02, 9.619075e-20
458, 1, 4.147456e+02, 1.258594e-40, 7.213502e+01, -2.284724e-19, -1.729673e+02, 9.528310e-20
458, 2, 4.147456e+02, 1.258594e-40, 7.213502e+01, -2.284724e-19, -1.729673e+02, 9.528310e-20
458, 3, 4.147456e+02, 1.258594e-40, 7.213502e+01, -2.284724e-19, -1.729673e+02, 9.528310e-20
458, 4, 4.147456e+02, 1.258594e-40, 7.213502e+01, -2.284724e-19, -1.729673e+02, 9.528310e-20
458, 5, 4.147456e+02, 1.258594e-40, 7.213502e+01, -2.284724e-19, -1.729673e+02, 9.528310e-20
458, 6, 4.147456e+02, 1.258594e-40, 7.213502e+01, -2.284724e-19, -1.729673e+02, 9.528310e-20
458, 7, 4.147456e+02, 1.258594e-40, 7.213502e+01, -2.284724e-19, -1.729673e+02, 9.528310e-20
458, 8, 4.147456e+02, 1.258594e-40, 7.213502e+01, -2.284724e-19, -1.729673e+02, 9.528310e-20
459, 1, 4.149641e+02, 4.659025e-39, 7.166306e+01, -1.390442e-18, -1.724459e+02, 5.778235e-19
459, 2, 4.149641e+02, 4.659025e-39, 7.166306e+01, -1.390442e-18, -1.724459e+02, 5.778235e-19
459, 3, 4.149641e+02, 4.659025e-39, 7.166306e+01, -1.390442e-18, -1.724459e+02, 5.778235e-19
459, 4, 4.149641e+02, 4.659025e-39, 7.166306e+01, -1.390442e-18, -1.724459e+02, 5.778235e-19
459, 5, 4.149641e+02, 4.659025e-39, 7.166306e+01, -1.390442e-18, -1.724459e+02, 5.778235e-19
459, 6, 4.149641e+02, 4.659025e-39, 7.166306e+01, -1.390442e-18, -1.724459e+02, 5.778235e-19
459, 7, 4.149641e+02, 4.659025e-39, 7.166306e+01, -1.390442e-18, -1.724459e+02, 5.778235e-19
459, 8, 4.149641e+02, 4.659025e-39, 7.166306e+01, -1.390442e-18, -1.724459e+02, 5.778235e-19
460, 1, 4.152623e+02, 4.619959e-39, 7.101291e+01, -1.385097e-18, -1.717236e+02, 5.727798e-19
460, 2, 4.152623e+02, 4.619959e-39, 7.101291e+01, -1.385097e-18, -1.717236e+02, 5.727798e-19
460, 3, 4.152623e+02, 4.619959e-39, 7.101291e+01, -1.385097e-18, -1.717236e+02, 5.727798e-19
460, 4, 4.152623e+02, 4.619959e-39, 7.101291e+01, -1.385097e-18, -1.717236e+02, 5.727798e-19
460, 5, 4.152623e+02, 4.619959e-39, 7.101291e+01, -1.385097e-18, -1.717236e+02, 5.727798e-19
460, 6, 4.152623e+02, 4.619959e-39, 7.101291e+01, -1.385097e-18, -1.717236e+02, 5.727798e-19
460, 7, 4.152623e+02, 4.619959e-39, 7.101291e+01, -1.385097e-18, -1.717236e+02, 5.727798e-19
460, 8, 4.152623e+02, 4.619959e-39, 7.101291e+01, -1.385097e-18, -1.717236e+02, 5.727798e-19
461, 1, 4.155239e+02, 1.160531e-40, 7.044633e+01, -2.195970e-19, -1.710910e+02, 9.041854e-20
461, 2, 4.155239e+02, 1.160531e-40, 7.044633e+01, -2.195970e-19, -1.710910e+02, 9.041854e-20
461, 3, 4.155239e+02, 1.160531e-40, 7.044633e+01, -2.195970e-19, -1.710910e+02, 9.041854e-20
461, 4, 4.155239e+02, 1.160531e-40, 7.044633e+01, -2.195970e-19, -1.710910e+02, 9.041854e-20
461, 5, 4.155239e+02, 1.160531e-40, 7.044633e+01, -2.195970e-19, -1.710910e+02, 9.041854e-20
461, 6, 4.155239e+02, 1.160531e-40, 7.044633e+01, -2.195970e-19, -1.710910e+02, 9.041854e-20
461, 7, 4.155239e+02, 1.160531e-40, 7.044633e+01, -2.195970e-19, -1.710910e+02, 9.041854e-20
461, 8, 4.155239e+02, 1.160531e-40, 7.044633e+01, -2.195970e-19, -1.710910e+02, 9.041854e-20
462, 1, 4.156703e+02, 1.148125e-40, 7.012503e+01, -2.184586e-19, -1.707305e+02, 8.972865e-20
462, 2, 4.156703e+02, 1.148125e-40, 7.012503e+01, -2.184586e-19, -1.707305e+02, 8.972865e-20
462, 3, 4.156703e+02, 1.148125e-40, 7.012503e+01, -2.184586e-19, -1.707305e+02, 8.972865e-20
462, 4, 4.156703e+02, 1.148125e-40, 7.012503e+01, -2.184586e-19, -1.707305e+02, 8.972865e-20
462, 5, 4.156703e+02, 1.148125e-40, 7.012503e+01, -2.184586e-19, -1.707305e+02, 8.972865e-20
462, 6, 4.156703e+02, 1.148125e-40, 7.012503e+01, -2.184586e-19, -1.707305e+02, 8.972865e-20
462, 7, 4.156703e+02, 1.148125e-40, 7.012503e+01, -2.184586e-19, -1.707305e+02, 8.972865e-20
462, 8, 4.156703e+02, 1.148125e-40, 7.012503e+01, -2.184586e-19, -1.707305e+02, 8.972865e-20
463, 1, 4.158872e+02, 4.528549e-39, 6.965920e+01, -1.372358e-18, -1.702068e+02, 5.616539e-19
463, 2, 4.158872e+02, 4.528549e-39, 6.965920e+01, -1.372358e-18, -1.702068e+02, 5.616539e-19
463, 3, 4.158872e+02, 4.528549e-39, 6.965920e+01, -1.372358e-18, -1.702068e+02, 5.616539e-19
463, 4, 4.158872e+02, 4.528549e-39, 6.965920e+01, -1.372358e-18, -1.702068e+02, 5.616539e-19
463, 5, 4.158872e+02, 4.528549e-39, 6.965920e+01, -1.372358e-18, -1.702068e+02, 5.616539e-19
463, 6, 4.158872e+02, 4.528549e-39, 6.965920e+01, -1.372358e-18, -1.702068e+02, 5.616539e-19
463, 7, 4.158872e+02, 4.528549e-39, 6.965920e+01, -1.372358e-18, -1.702068e+02, 5.616539e-19
463, 8, 4.158872e+02, 4.528549e-39, 6.965920e+01, -1.372358e-18, -1.702068e+02, 5.616539e-19
464, 1, 4.161835e+02, 4.479449e-39, 6.901765e+01, -1.365384e-18, -1.694816e+02, 5.560225e-19
464, 2, 4.161835e+02, 4.479449e-39, 6.901765e+01, -1.365384e-18, -1.694816e+02, 5.560225e-19
464, 3, 4.161835e+02, 4.479449e-39, 6.901765e+01, -1.365384e-18, -1.694816e+02, 5.560225e-19
464, 4, 4.161835e+02, 4.479449e-39, 6.901765e+01, -1.365384e-18, -1.694816e+02, 5.560225e-19
464, 5, 4.161835e+02, 4.479449e-39, 6.901765e+01, -1.365384e-18, -1.694816e+02, 5.560225e-19
464, 6, 4.161835e+02, 4.479449e-39, 6.901765e+01, -1.365384e-18, -1.694816e+02, 5.560225e-19
464, 7, 4.161835e+02, 4.479449e-39, 6.901765e+01, -1.365384e-18, -1.694816e+02, 5.560225e-19
464, 8, 4.161835e+02, 4.479449e-39, 6.901765e+01, -1.365384e-18, -1.694816e+02, 5.560225e-19
465, 1, 4.163946e+02, 1.046488e-40, 6.855766e+01, -2.087467e-19, -1.689587e+02, 8.470227e-20
465, 2, 4.163946e+02, 1.046488e-40, 6.855766e+01, -2.087467e-19, -1.689587e+02, 8.470227e-20
465, 3, 4.163946e+02, 1.046488e-40, 6.855766e+01, -2.087467e-19, -1.689587e+02, 8.470227e-20
465, 4, 4.163946e+02, 1.046488e-40, 6.855766e+01, -2.087467e-19, -1.689587e+02, 8.470227e-20
465, 5, 4.163946e+02, 1.046488e-40, 6.855766e+01, -2.087467e-19, -1.689587e+02, 8.470227e-20
465, 6, 4.163946e+02, 1.046488e-40, 6.855766e+01, -2.087467e-19, -1.689587e+02, 8.470227e-20
465, 7, 4.163946e+02, 1.046488e-40, 6.855766e+01, -2.087467e-19, -1.689587e+02, 8.470227e-20
465, 8, 4.163946e+02, 1.046488e-40, 6.855766e+01, -2.087467e-19, -1.689587e+02, 8.470227e-20
466, 1, 4.165412e+02, 1.034889e-40, 6.824062e+01, -2.076232e-19, -1.685972e+02, 8.403658e-20
466, 2, 4.165412e+02, 1.034889e-40, 6.824062e+01, -2.076232e-19, -1.685972e+02, 8.403658e-20
466, 3, 4.165412e+02, 1.034889e-40, 6.824062e+01, -2.076232e-19, -1.685972e+02, 8.403658e-20
466, 4, 4.165412e+02, 1.034889e-40, 6.824062e+01, -2.076232e-19, -1.685972e+02, 8.403658e-20
466, 5, 4.165412e+02, 1.034889e-40, 6.824062e+01, -2.076232e-19, -1.685972e+02, 8.403658e-20
466, 6, 4.165412e+02, 1.034889e-40, 6.824062e+01, -2.076232e-19, -1.685972e+02, 8.403658e-20
466, 7, 4.165412e+02, 1.034889e-40, 6.824062e+01, -2.076232e-19, -1.685972e+02, 8.403658e-20
466, 8, 4.165412e+02, 1.034889e-40, 6.824062e+01, -2.076232e-19, -1.685972e+02, 8.403658e-20
467, 1, 4.167548e+02, 4.363312e-39, 6.778035e+01, -1.348492e-18, -1.680708e+02, 5.438261e-19
467, 2, 4.167548e+02, 4.363312e-39, 6.778035e+01, -1.348492e-18, -1.680708e+02, 5.438261e-19
467, 3, 4.167548e+02, 4.363312e-39, 6.778035e+01, -1.348492e-18, -1.680708e+02, 5.438261e-19
467, 4, 4.167548e+02, 4.363312e-39, 6.778035e+01, -1.348492e-18, -1.680708e+02, 5.438261e-19
467, 5, 4.167548e+02, 4.363312e-39, 6.778035e+01, -1.348492e-18, -1.680708e+02, 5.438261e-19
467, 6, 4.167548e+02, 4.363312e-39, 6.778035e+01, -1.348492e-18, -1.680708e+02, 5.438261e-19
467, 7, 4.167548e+02, 4.363312e-39, 6.778035e+01, -1.348492e-18, -1.680708e+02, 5.438261e-19
467, 8, 4.167548e+02, 4.363312e-39, 6.778035e+01, -1.348492e-18, -1.680708e+02, 5.438261e-19
468, 1, 4.170476e+02, 4.300988e-39, 6.714674e+01, -1.339297e-18, -1.673421e+02, 5.373987e-19
468, 2, 4.170476e+02, 4.300988e-39, 6.714674e+01, -1.339297e-18, -1.673421e+02, 5.373987e-19
468, 3, 4.170476e+02, 4.300988e-39, 6.714674e+01, -1.339297e-18, -1.673421e+02, 5.373987e-19
468, 4, 4.170476e+02, 4.300988e-39, 6.714674e+01, -1.339297e-18, -1.673421e+02, 5.373987e-19
468, 5, 4.170476e+02, 4.300988e-39, 6.714674e+01, -1.339297e-18, -1.673421e+02, 5.373987e-19
468, 6, 4.170476e+02, 4.300988e-39, 6.714674e+01, -1.339297e-18, -1.673421e+02, 5.373987e-19
468, 7, 4.170476e+02, 4.300988e-39, 6.714674e+01, -1.339297e-18, -1.673421e+02, 5.373987e-19
468, 8, 4.170476e+02, 4.300988e-39, 6.714674e+01, -1.339297e-18, -1.673421e+02, 5.373987e-19
469, 1, 4.172572e+02, 5.217785e-41, 6.669274e+01, -1.475520e-19, -1.668173e+02, 5.899054e-20
469, 2, 4.172572e+02, 5.217785e-41, 6.669274e+01, -1.475520e-19, -1.668173e+02, 5.899054e-20
469, 3, 4.172572e+02, 5.217785e-41, 6.669274e+01, -1.475520e-19, -1.668173e+02, 5.899054e-20
469, 4, 4.172572e+02, 5.217785e-41, 6.669274e+01, -1.475520e-19, -1.668173e+02, 5.899054e-20
469, 5, 4.172572e+02, 5.217785e-41, 6.669274e+01, -1.475520e-19, -1.668173e+02, 5.899054e-20
469, 6, 4.172572e+02, 5.217785e-41, 6.669274e+01, -1.475520e-19, -1.668173e+02, 5.899054e-20
469, 7, 4.172572e+02, 5.217785e-41, 6.669274e+01, -1.475520e-19, -1.668173e+02, 5.899054e-20
469, 8, 4.172572e+02, 5.217785e-41, 6.669274e+01, -1.475520e-19, -1.668173e+02, 5.899054e-20
470, 1, 4.174001e+02, 5.234187e-41, 6.637936e+01, -1.478090e-19, -1.664535e+02, 5.894421e-20
470, 2, 4.174001e+02, 5.234187e-41, 6.637936e+01, -1.478090e-19, -1.664535e+02, 5.894421e-20
470, 3, 4.174001e+02, 5.234187e-41, 6.637936e+01, -1.478090e-19, -1.664535e+02, 5.894421e-20
470, 4, 4.174001e+02, 5.234187e-41, 6.637936e+01, -1.478090e-19, -1.664535e+02, 5.894421e-20
470, 5, 4.174001e+02, 5.234187e-41, 6.637936e+01, -1.478090e-19, -1.664535e+02, 5.894421e-20
470, 6, 4.174001e+02, 5.234187e-41, 6.637936e+01, -1.478090e-19, -1.664535e+02, 5.894421e-20
470, 7, 4.174001e+02, 5.234187e-41, 6.637936e+01, -1.478090e-19, -1.664535e+02, 5.894421e-20
470, 8, 4.174001e+02, 5.234187e-41, 6.637936e+01, -1.478090e-19, -1.664535e+02, 5.894421e-20
471, 1, 4.176143e+02, 4.169469e-39, 6.592529e+01, -1.319557e-18, -1.659257e+02, 5.242838e-19
471, 2, 4.176143e+02, 4.169469e-39, 6.592529e+01, -1.319557e-18, -1.659257e+02, 5.242838e-19
471, 3, 4.176143e+02, 4.169469e-39, 6.592529e+01, -1.319557e-18, -1.659257e+02, 5.242838e-19
471, 4, 4.176143e+02, 4.169469e-39, 6.592529e+01, -1.319557e-18, -1.659257e+02, 5.242838e-19
471, 5, 4.176143e+02, 4.169469e-39, 6.592529e+01, -1.319557e-18, -1.659257e+02, 5.242838e-19
471, 6, 4.176143e+02, 4.169469e-39, 6.592529e+01, -1.319557e-18, -1.659257e+02, 5.242838e-19
471, 7, 4.176143e+02, 4.169469e-39, 6.592529e+01, -1.319557e-18, -1.659257e+02, 5.242838e-19
471, 8, 4.176143e+02, 4.169469e-39, 6.592529e+01, -1.319557e-18, -1.659257e+02, 5.242838e-19
472, 1, 4.179036e+02, 4.092433e-39, 6.529966e+01, -1.307762e-18, -1.651937e+02, 5.169473e-19
472, 2, 4.179036e+02, 4.092433e-39, 6.529966e+01, -1.307762e-18, -1.651937e+02, 5.169473e-19
472, 3, 4.179036e+02, 4.092433e-39, 6.529966e+01, -1.307762e-18, -1.651937e+02, 5.169473e-19
472, 4, 4.179036e+02, 4.092433e-39, 6.529966e+01, -1.307762e-18, -1.651937e+02, 5.169473e-19
472, 5, 4.179036e+02, 4.092433e-39, 6.529966e+01, -1.307762e-18, -1.651937e+02, 5.169473e-19
472, 6, 4.179036e+02, 4.092433e-39, 6.529966e+01, -1.307762e-18, -1.651937e+02, 5.169473e-19
472, 7, 4.179036e+02, 4.092433e-39, 6.529966e+01, -1.307762e-18, -1.651937e+02, 5.169473e-19
472, 8, 4.179036e+02, 4.092433e-39, 6.529966e+01, -1.307762e-18, -1.651937e+02, 5.169473e-19
473, 1, 4.181097e+02, 3.136566e-41, 6.485137e+01, -1.145176e-19, -1.646663e+02, 4.510107e-20
473, 2, 4.181097e+02, 3.136566e-41, 6.485137e+01, -1.145176e-19, -1.646663e+02, 4.510107e-20
473, 3, 4.181097e+02, 3.136566e-41, 6.485137e+01, -1.145176e-19, -1.646663e+02, 4.510107e-20
473, 4, 4.181097e+02, 3.136566e-41, 6.485137e+01, -1.145176e-19, -1.646663e+02, 4.510107e-20
473, 5, 4.181097e+02, 3.136566e-41, 6.485137e+01, -1.145176e-19, -1.646663e+02, 4.510107e-20
473, 6, 4.181097e+02, 3.136566e-41, 6.485137e+01, -1.145176e-19, -1.646663e+02, 4.510107e-20
473, 7, 4.181097e+02, 3.136566e-41, 6.485137e+01, -1.145176e-19, -1.646663e+02, 4.510107e-20
473, 8, 4.181097e+02, 3.136566e-41, 6.485137e+01, -1.145176e-19, -1.646663e+02, 4.510107e-20
474, 1, 4.182529e+02, 2.298564e-41, 6.454228e+01, -9.805003e-20, -1.643015e+02, 3.851682e-20
474, 2, 4.182529e+02, 2.298564e-41, 6.454228e+01, -9.805003e-20, -1.643015e+02, 3.851682e-20
474, 3, 4.182529e+02, 2.298564e-41, 6.454228e+01, -9.805003e-20, -1.643015e+02, 3.851682e-20
474, 4, 4.182529e+02, 2.298564e-41, 6.454228e+01, -9.805003e-20, -1.643015e+02, 3.851682e-20
474, 5, 4.182529e+02, 2.298564e-41, 6.454228e+01, -9.805003e-20, -1.643015e+02, 3.851682e-20
474, 6, 4.182529e+02, 2.298564e-41, 6.454228e+01, -9.805003e-20, -1.643015e+02, 3.851682e-20
474, 7, 4.182529e+02, 2.298564e-41, 6.454228e+01, -9.805003e-20, -1.643015e+02, 3.851682e-20
474, 8, 4.182529e+02, 2.298564e-41, 6.454228e+01, -9.805003e-20, -1.643015e+02, 3.851682e-20
475, 1, 4.185090e+02, 3.929671e-39, 6.399689e+01, -1.282421e-18, -1.636560e+02, 5.014845e-19
475, 2, 4.185090e+02, 3.929671e-39, 6.399689e+01, -1.282421e-18, -1.636560e+02, 5.014845e-19
475, 3, 4.185090e+02, 3.929671e-39, 6.399689e+01, -1.282421e-18, -1.636560e+02, 5.014845e-19
475, 4, 4.185090e+02, 3.929671e-39, 6.399689e+01, -1.282421e-18, -1.636560e+02, 5.014845e-19
475, 5, 4.185090e+02, 3.929671e-39, 6.399689e+01, -1.282421e-18, -1.636560e+02, 5.014845e-19
475, 6, 4.185090e+02, 3.929671e-39, 6.399689e+01, -1.282421e-18, -1.636560e+02, 5.014845e-19
475, 7, 4.185090e+02, 3.929671e-39, 6.399689e+01, -1.282421e-18, -1.636560e+02, 5.014845e-19
475, 8, 4.185090e+02, 3.929671e-39, 6.399689e+01, -1.282421e-18, -1.636560e+02, 5.014845e-19
476, 1, 4.187944e+02, 3.842490e-39, 6.337967e+01, -1.268548e-18, -1.629204e+02, 4.934934e-19
476, 2, 4.187944e+02, 3.842490e-39, 6.337967e+01, -1.268548e-18, -1.629204e+02, 4.934934e-19
476, 3, 4.187944e+02, 3.842490e-39, 6.337967e+01, -1.268548e-18, -1.629204e+02, 4.934934e-19
476, 4, 4.187944e+02, 3.842490e-39, 6.337967e+01, -1.268548e-18, -1.629204e+02, 4.934934e-19
476, 5, 4.187944e+02, 3.842490e-39, 6.337967e+01, -1.268548e-18, -1.629204e+02, 4.934934e-19
476, 6, 4.187944e+02, 3.842490e-39, 6.337967e+01, -1.268548e-18, -1.629204e+02, 4.934934e-19
476, 7, 4.187944e+02, 3.842490e-39, 6.337967e+01, -1.268548e-18, -1.629204e+02, 4.934934e-19
476, 8, 4.187944e+02, 3.842490e-39, 6.337967e+01, -1.268548e-18, -1.629204e+02, 4.934934e-19
477, 1, 4.190006e+02, 3.163521e-41, 6.293800e+01, -1.151311e-19, -1.623917e+02, 4.462126e-20
477, 2, 4.190006e+02, 3.163521e-41, 6.293800e+01, -1.151311e-19, -1.623917e+02, 4.462126e-20
477, 3, 4.190006e+02, 3.163521e-41, 6.293800e+01, -1.151311e-19, -1.623917e+02, 4.462126e-20
477, 4, 4.190006e+02, 3.163521e-41, 6.293800e+01, -1.151311e-19, -1.623917e+02, 4.462126e-20
477, 5, 4.190006e+02, 3.163521e-41, 6.293800e+01, -1.151311e-19, -1.623917e+02, 4.462126e-20
477, 6, 4.190006e+02, 3.163521e-41, 6.293800e+01, -1.151311e-19, -1.623917e+02, 4.462126e-20
477, 7, 4.190006e+02, 3.163521e-41, 6.293800e+01, -1.151311e-19, -1.623917e+02, 4.462126e-20
477, 8, 4.190006e+02, 3.163521e-41, 6.293800e+01, -1.151311e-19, -1.623917e+02, 4.462126e-20
478, 1, 4.191431e+02, 3.307965e-41, 6.262957e+01, -1.177502e-19, -1.620208e+02, 4.551664e-20
478, 2, 4.191431e+02, 3.307965e-41, 6.262957e+01, -1.177502e-19, -1.620208e+02, 4.551664e-20
478, 3, 4.191431e+02, 3.307965e-41, 6.262957e+01, -1.177502e-19, -1.620208e+02, 4.551664e-20
478, 4, 4.191431e+02, 3.307965e-41, 6.262957e+01, -1.177502e-19, -1.620208e+02, 4.551664e-20
478, 5, 4.191431e+02, 3.307965e-41, 6.262957e+01, -1.177502e-19, -1.620208e+02, 4.551664e-20
478, 6, 4.191431e+02, 3.307965e-41, 6.262957e+01, -1.177502e-19, -1.620208e+02, 4.551664e-20
478, 7, 4.191431e+02, 3.307965e-41, 6.262957e+01, -1.177502e-19, -1.620208e+02, 4.551664e-20
478, 8, 4.191431e+02, 3.307965e-41, 6.262957e+01, -1.177502e-19, -1.620208e+02, 4.551664e-20
479, 1, 4.193489e+02, 3.546769e-39, 6.219058e+01, -1.219563e-18, -1.614916e+02, 4.696548e-19
479, 2, 4.193489e+02, 3.546769e-39, 6.219058e+01, -1.219563e-18, -1.614916e+02, 4.696548e-19
479, 3, 4.193489e+02, 3.546769e-39, 6.219058e+01, -1.219563e-18, -1.614916e+02, 4.696548e-19
479, 4, 4.193489e+02, 3.546769e-39, 6.219058e+01, -1.219563e-18, -1.614916e+02, 4.696548e-19
479, 5, 4.193489e+02, 3.546769e-39, 6.219058e+01, -1.219563e-18, -1.614916e+02, 4.696548e-19
479, 6, 4.193489e+02, 3.546769e-39, 6.219058e+01, -1.219563e-18, -1.614916e+02, 4.696548e-19
479, 7, 4.193489e+02, 3.546769e-39, 6.219058e+01, -1.219563e-18, -1.614916e+02, 4.696548e-19
479, 8, 4.193489e+02, 3.546769e-39, 6.219058e+01, -1.219563e-18, -1.614916e+02, 4.696548e-19
480, 1, 4.196326e+02, 2.855796e-39, 6.158171e+01, -1.094708e-18, -1.607535e+02, 4.193623e-19
480, 2, 4.196326e+02, 2.855796e-39, 6.158171e+01, -1.094708e-18, -1.607535e+02, 4.193623e-19
480, 3, 4.196326e+02, 2.855796e-39, 6.158171e+01, -1.094708e-18, -1.607535e+02, 4.193623e-19
480, 4, 4.196326e+02, 2.855796e-39, 6.158171e+01, -1.094708e-18, -1.607535e+02, 4.193623e-19
480, 5, 4.196326e+02, 2.855796e-39, 6.158171e+01, -1.094708e-18, -1.607535e+02, 4.193623e-19
480, 6, 4.196326e+02, 2.855796e-39, 6.158171e+01, -1.094708e-18, -1.607535e+02, 4.193623e-19
480, 7, 4.196326e+02, 2.855796e-39, 6.158171e+01, -1.094708e-18, -1.607535e+02, 4.193623e-19
480, 8, 4.196326e+02, 2.855796e-39, 6.158171e+01, -1.094708e-18, -1.607535e+02, 4.193623e-19
481, 1, 4.198367e+02, 2.886277e-41, 6.114219e+01, -1.100802e-19, -1.602178e+02, 4.200872e-20
481, 2, 4.198367e+02, 2.886277e-41, 6.114219e+01, -1.100802e-19, -1.602178e+02, 4.200872e-20
481, 3, 4.198367e+02, 2.886277e-41, 6.114219e+01, -1.100802e-19, -1.602178e+02, 4.200872e-20
481, 4, 4.198367e+02, 2.886277e-41, 6.114219e+01, -1.100802e-19, -1.602178e+02, 4.200872e-20
481, 5, 4.198367e+02, 2.886277e-41, 6.114219e+01, -1.100802e-19, -1.602178e+02, 4.200872e-20
481, 6, 4.198367e+02, 2.886277e-41, 6.114219e+01, -1.100802e-19, -1.602178e+02, 4.200872e-20
481, 7, 4.198367e+02, 2.886277e-41, 6.114219e+01, -1.100802e-19, -1.602178e+02, 4.200872e-20
481, 8, 4.198367e+02, 2.886277e-41, 6.114219e+01, -1.100802e-19, -1.602178e+02, 4.200872e-20
482, 1, 4.199761e+02, 2.834856e-41, 6.084130e+01, -1.091133e-19, -1.598496e+02, 4.153027e-20
482, 2, 4.199761e+02, 2.834856e-41, 6.084130e+01, -1.091133e-19, -1.598496e+02, 4.153027e-20
482, 3, 4.199761e+02, 2.834856e-41, 6.084130e+01, -1.091133e-19, -1.598496e+02, 4.153027e-20
482, 4, 4.199761e+02, 2.834856e-41, 6.084130e+01, -1.091133e-19, -1.598496e+02, 4.153027e-20
482, 5, 4.199761e+02, 2.834856e-41, 6.084130e+01, -1.091133e-19, -1.598496e+02, 4.153027e-20
482, 6, 4.199761e+02, 2.834856e-41, 6.084130e+01, -1.091133e-19, -1.598496e+02, 4.153027e-20
482, 7, 4.199761e+02, 2.834856e-41, 6.084130e+01, -1.091133e-19, -1.598496e+02, 4.153027e-20
482, 8, 4.199761e+02, 2.834856e-41, 6.084130e+01, -1.091133e-19, -1.598496e+02, 4.153027e-20
483, 1, 4.201784e+02, 2.710637e-39, 6.040808e+01, -1.067217e-18, -1.593178e+02, 4.046534e-19
483, 2, 4.201784e+02, 2.710637e-39, 6.040808e+01, -1.067217e-18, -1.593178e+02, 4.046534e-19
483, 3, 4.201784e+02, 2.710637e-39, 6.040808e+01, -1.067217e-18, -1.593178e+02, 4.046534e-19
483, 4, 4.201784e+02, 2.710637e-39, 6.040808e+01, -1.067217e-18, -1.593178e+02, 4.046534e-19
483, 5, 4.201784e+02, 2.710637e-39, 6.040808e+01, -1.067217e-18, -1.593178e+02, 4.046534e-19
483, 6, 4.201784e+02, 2.710637e-39, 6.040808e+01, -1.067217e-18, -1.593178e+02, 4.046534e-19
483, 7, 4.201784e+02, 2.710637e-39, 6.040808e+01, -1.067217e-18, -1.593178e+02, 4.046534e-19
483, 8, 4.201784e+02, 2.710637e-39, 6.040808e+01, -1.067217e-18, -1.593178e+02, 4.046534e-19
484, 1, 4.204585e+02, 2.625713e-39, 5.980730e+01, -1.050716e-18, -1.585765e+02, 3.962787e-19
484, 2, 4.204585e+02, 2.625713e-39, 5.980730e+01, -1.050716e-18, -1.585765e+02, 3.962787e-19
484, 3, 4.204585e+02, 2.625713e-39, 5.980730e+01, -1.050716e-18, -1.585765e+02, 3.962787e-19
484, 4, 4.204585e+02, 2.625713e-39, 5.980730e+01, -1.050716e-18, -1.585765e+02, 3.962787e-19
484, 5, 4.204585e+02, 2.625713e-39, 5.980730e+01, -1.050716e-18, -1.585765e+02, 3.962787e-19
484, 6, 4.204585e+02, 2.625713e-39, 5.980730e+01, -1.050716e-18, -1.585765e+02, 3.962787e-19
484, 7, 4.204585e+02, 2.625713e-39, 5.980730e+01, -1.050716e-18, -1.585765e+02, 3.962787e-19
484, 8, 4.204585e+02, 2.625713e-39, 5.980730e+01, -1.050716e-18, -1.585765e+02, 3.962787e-19
485, 1, 4.206611e+02, 2.414341e-41, 5.937377e+01, -1.007779e-19, -1.580387e+02, 3.786139e-20
485, 2, 4.206611e+02, 2.414341e-41, 5.937377e+01, -1.007779e-19, -1.580387e+02, 3.786139e-20
485, 3, 4.206611e+02, 2.414341e-41, 5.937377e+01, -1.007779e-19, -1.580387e+02, 3.786139e-20
485, 4, 4.206611e+02, 2.414341e-41, 5.937377e+01, -1.007779e-19, -1.580387e+02, 3.786139e-20
485, 5, 4.206611e+02, 2.414341e-41, 5.937377e+01, -1.007779e-19, -1.580387e+02, 3.786139e-20
485, 6, 4.206611e+02, 2.414341e-41, 5.937377e+01, -1.007779e-19, -1.580387e+02, 3.786139e-20
485, 7, 4.206611e+02, 2.414341e-41, 5.937377e+01, -1.007779e-19, -1.580387e+02, 3.786139e-20
485, 8, 4.206611e+02, 2.414341e-41, 5.937377e+01, -1.007779e-19, -1.580387e+02, 3.786139e-20
486, 1, 4.208007e+02, 2.326703e-41, 5.907720e+01, -9.894840e-20, -1.576697e+02, 3.707494e-20
486, 2, 4.208007e+02, 2.326703e-41, 5.907720e+01, -9.894840e-20, -1.576697e+02, 3.707494e-20
486, 3, 4.208007e+02, 2.326703e-41, 5.907720e+01, -9.894840e-20, -1.576697e+02, 3.707494e-20
486, 4, 4.208007e+02, 2.326703e-41, 5.907720e+01, -9.894840e-20, -1.576697e+02, 3.707494e-20
486, 5, 4.208007e+02, 2.326703e-41, 5.907720e+01, -9.894840e-20, -1.576697e+02, 3.707494e-20
486, 6, 4.208007e+02, 2.326703e-41, 5.907720e+01, -9.894840e-20, -1.576697e+02, 3.707494e-20
486, 7, 4.208007e+02, 2.326703e-41, 5.907720e+01, -9.894840e-20, -1.576697e+02, 3.707494e-20
486, 8, 4.208007e+02, 2.326703e-41, 5.907720e+01, -9.894840e-20, -1.576697e+02, 3.707494e-20
487, 1, 4.209994e+02, 1.967589e-39, 5.864978e+01, -9.101394e-19, -1.571354e+02, 3.397037e-19
487, 2, 4.209994e+02, 1.967589e-39, 5.864978e+01, -9.101394e-19, -1.571354e+02, 3.397037e-19
487, 3, 4.209994e+02, 1.967589e-39, 5.864978e+01, -9.101394e-19, -1.571354e+02, 3.397037e-19
487, 4, 4.209994e+02, 1.967589e-39, 5.864978e+01, -9.101394e-19, -1.571354e+02, 3.397037e-19
487, 5, 4.209994e+02, 1.967589e-39, 5.864978e+01, -9.101394e-19, -1.571354e+02, 3.397037e-19
487, 6, 4.209994e+02, 1.967589e-39, 5.864978e+01, -9.101394e-19, -1.571354e+02, 3.397037e-19
487, 7, 4.209994e+02, 1.967589e-39, 5.864978e+01, -9.101394e-19, -1.571354e+02, 3.397037e-19
487, 8, 4.209994e+02, 1.967589e-39, 5.864978e+01, -9.101394e-19, -1.571354e+02, 3.397037e-19
488, 1, 4.221984e+02, 1.673304e-39, 5.608972e+01, -8.405155e-19, -1.538863e+02, 3.063579e-19
488, 2, 4.221984e+02, 1.673304e-39, 5.608972e+01, -8.405155e-19, -1.538863e+02, 3.063579e-19
488, 3, 4.221984e+02, 1.673304e-39, 5.608972e+01, -8.405155e-19, -1.538863e+02, 3.063579e-19
488, 4, 4.221984e+02, 1.673304e-39, 5.608972e+01, -8.405155e-19, -1.538863e+02, 3.063579e-19
488, 5, 4.221984e+02, 1.673304e-39, 5.608972e+01, -8.405155e-19, -1.538863e+02, 3.063579e-19
488, 6, 4.221984e+02, 1.673304e-39, 5.608972e+01, -8.405155e-19, -1.538863e+02, 3.063579e-19
488, 7, 4.221984e+02, 1.673304e-39, 5.608972e+01, -8.405155e-19, -1.538863e+02, 3.063579e-19
488, 8, 4.221984e+02, 1.673304e-39, 5.608972e+01, -8.405155e-19, -1.538863e+02, 3.063579e-19
489, 1, 4.223952e+02, 1.480756e-41, 5.566873e+01, -7.908630e-20, -1.533434e+02, 2.871094e-20
489, 2, 4.223952e+02, 1.480756e-41, 5.566873e+01, -7.908630e-20, -1.533434e+02, 2.871094e-20
489, 3, 4.223952e+02, 1.480756e-41, 5.566873e+01, -7.908630e-20, -1.533434e+02, 2.871094e-20
489, 4, 4.223952e+02, 1.480756e-41, 5.566873e+01, -7.908630e-20, -1.533434e+02, 2.871094e-20
489, 5, 4.223952e+02, 1.480756e-41, 5.566873e+01, -7.908630e-20, -1.533434e+02, 2.871094e-20
489, 6, 4.223952e+02, 1.480756e-41, 5.566873e+01, -7.908630e-20, -1.533434e+02, 2.871094e-20
489, 7, 4.223952e+02, 1.480756e-41, 5.566873e+01, -7.908630e-20, -1.533434e+02, 2.871094e-20
489, 8, 4.223952e+02, 1.480756e-41, 5.566873e+01, -7.908630e-20, -1.533434e+02, 2.871094e-20
490, 1, 4.225306e+02, 1.380264e-41, 5.538082e+01, -7.636777e-20, -1.529709e+02, 2.764781e-20
490, 2, 4.225306e+02, 1.380264e-41, 5.538082e+01, -7.636777e-20, -1.529709e+02, 2.764781e-20
490, 3, 4.225306e+02, 1.380264e-41, 5.538082e+01, -7.636777e-20, -1.529709e+02, 2.764781e-20
490, 4, 4.225306e+02, 1.380264e-41, 5.538082e+01, -7.636777e-20, -1.529709e+02, 2.764781e-20
490, 5, 4.225306e+02, 1.380264e-41, 5.538082e+01, -7.636777e-20, -1.529709e+02, 2.764781e-20
490, 6, 4.225306e+02, 1.380264e-41, 5.538082e+01, -7.636777e-20, -1.529709e+02, 2.764781e-20
490, 7, 4.225306e+02, 1.380264e-41, 5.538082e+01, -7.636777e-20, -1.529709e+02, 2.764781e-20
490, 8, 4.225306e+02, 1.380264e-41, 5.538082e+01, -7.636777e-20, -1.529709e+02, 2.764781e-20
491, 1, 4.227253e+02, 6.419875e-41, 5.496641e+01, -1.647375e-19, -1.524326e+02, 5.940350e-20
491, 2, 4.227253e+02, 6.419875e-41, 5.496641e+01, -1.647375e-19, -1.524326e+02, 5.940350e-20
491, 3, 4.227253e+02, 6.419875e-41, 5.496641e+01, -1.647375e-19, -1.524326e+02, 5.940350e-20
491, 4, 4.227253e+02, 6.419875e-41, 5.496641e+01, -1.647375e-19, -1.524326e+02, 5.940350e-20
491, 5, 4.227253e+02, 6.419875e-41, 5.496641e+01, -1.647375e-19, -1.524326e+02, 5.940350e-20
491, 6, 4.227253e+02, 6.419875e-41, 5.496641e+01, -1.647375e-19, -1.524326e+02, 5.940350e-20
491, 7, 4.227253e+02, 6.419875e-41, 5.496641e+01, -1.647375e-19, -1.524326e+02, 5.940350e-20
491, 8, 4.227253e+02, 6.419875e-41, 5.496641e+01, -1.647375e-19, -1.524326e+02, 5.940350e-20
492, 1, 4.229953e+02, 5.768876e-41, 5.439148e+01, -1.562116e-19, -1.516817e+02, 5.601586e-20
492, 2, 4.229953e+02, 5.768876e-41, 5.439148e+01, -1.562116e-19, -1.516817e+02, 5.601586e-20
492, 3, 4.229953e+02, 5.768876e-41, 5.439148e+01, -1.562116e-19, -1.516817e+02, 5.601586e-20
492, 4, 4.229953e+02, 5.768876e-41, 5.439148e+01, -1.562116e-19, -1.516817e+02, 5.601586e-20
492, 5, 4.229953e+02, 5.768876e-41, 5.439148e+01, -1.562116e-19, -1.516817e+02, 5.601586e-20
492, 6, 4.229953e+02, 5.768876e-41, 5.439148e+01, -1.562116e-19, -1.516817e+02, 5.601586e-20
492, 7, 4.229953e+02, 5.768876e-41, 5.439148e+01, -1.562116e-19, -1.516817e+02, 5.601586e-20
492, 8, 4.229953e+02, 5.768876e-41, 5.439148e+01, -1.562116e-19, -1.516817e+02, 5.601586e-20
493, 1, 4.231905e+02, 1.041767e-41, 5.397655e+01, -6.639772e-20, -1.511369e+02, 2.371307e-20
493, 2, 4.231905e+02, 1.041767e-41, 5.397655e+01, -6.639772e-20, -1.511369e+02, 2.371307e-20
493, 3, 4.231905e+02, 1.041767e-41, 5.397655e+01, -6.639772e-20, -1.511369e+02, 2.371307e-20
493, 4, 4.231905e+02, 1.041767e-41, 5.397655e+01, -6.639772e-20, -1.511369e+02, 2.371307e-20
493, 5, 4.231905e+02, 1.041767e-41, 5.397655e+01, -6.639772e-20, -1.511369e+02, 2.371307e-20
493, 6, 4.231905e+02, 1.041767e-41, 5.397655e+01, -6.639772e-20, -1.511369e+02, 2.371307e-20
493, 7, 4.231905e+02, 1.041767e-41, 5.397655e+01, -6.639772e-20, -1.511369e+02, 2.371307e-20
493, 8, 4.231905e+02, 1.041767e-41, 5.397655e+01, -6.639772e-20, -1.511369e+02, 2.371307e-20
494, 1, 4.233241e+02, 9.684545e-42, 5.369273e+01, -6.402891e-20, -1.507628e+02, 2.280328e-20
494, 2, 4.233241e+02, 9.684545e-42, 5.369273e+01, -6.402891e-20, -1.507628e+02, 2.280328e-20
494, 3, 4.233241e+02, 9.684545e-42, 5.369273e+01, -6.402891e-20, -1.507628e+02, 2.280328e-20
494, 4, 4.233241e+02, 9.684545e-42, 5.369273e+01, -6.402891e-20, -1.507628e+02, 2.280328e-20
494, 5, 4.233241e+02, 9.684545e-42, 5.369273e+01, -6.402891e-20, -1.507628e+02, 2.280328e-20
494, 6, 4.233241e+02, 9.684545e-42, 5.369273e+01, -6.402891e-20, -1.507628e+02, 2.280328e-20
494, 7, 4.233241e+02, 9.684545e-42, 5.369273e+01, -6.402891e-20, -1.507628e+02, 2.280328e-20
494, 8, 4.233241e+02, 9.684545e-42, 5.369273e+01, -6.402891e-20, -1.507628e+02, 2.280328e-20
495, 1, 4.235151e+02, 4.807552e-41, 5.328420e+01, -1.426910e-19, -1.502220e+02, 5.061290e-20
495, 2, 4.235151e+02, 4.807552e-41, 5.328420e+01, -1.426910e-19, -1.502220e+02, 5.061290e-20
495, 3, 4.235151e+02, 4.807552e-41, 5.328420e+01, -1.426910e-19, -1.502220e+02, 5.061290e-20
495, 4, 4.235151e+02, 4.807552e-41, 5.328420e+01, -1.426910e-19, -1.502220e+02, 5.061290e-20
495, 5, 4.235151e+02, 4.807552e-41, 5.328420e+01, -1.426910e-19, -1.502220e+02, 5.061290e-20
495, 6, 4.235151e+02, 4.807552e-41, 5.328420e+01, -1.426910e-19, -1.502220e+02, 5.061290e-20
495, 7, 4.235151e+02, 4.807552e-41, 5.328420e+01, -1.426910e-19, -1.502220e+02, 5.061290e-20
495, 8, 4.235151e+02, 4.807552e-41, 5.328420e+01, -1.426910e-19, -1.502220e+02, 5.061290e-20
496, 1, 4.237813e+02, 4.204034e-41, 5.271751e+01, -1.334762e-19, -1.494680e+02, 4.707719e-20
496, 2, 4.237813e+02, 4.204034e-41, 5.271751e+01, -1.334762e-19, -1.494680e+02, 4.707719e-20
496, 3, 4.237813e+02, 4.204034e-41, 5.271751e+01, -1.334762e-19, -1.494680e+02, 4.707719e-20
496, 4, 4.237813e+02, 4.204034e-41, 5.271751e+01, -1.334762e-19, -1.494680e+02, 4.707719e-20
496, 5, 4.237813e+02, 4.204034e-41, 5.271751e+01, -1.334762e-19, -1.494680e+02, 4.707719e-20
496, 6, 4.237813e+02, 4.204034e-41, 5.271751e+01, -1.334762e-19, -1.494680e+02, 4.707719e-20
496, 7, 4.237813e+02, 4.204034e-41, 5.271751e+01, -1.334762e-19, -1.494680e+02, 4.707719e-20
496, 8, 4.237813e+02, 4.204034e-41, 5.271751e+01, -1.334762e-19, -1.494680e+02, 4.707719e-20
497, 1, 4.239769e+02, 6.802279e-42, 5.230890e+01, -5.370297e-20, -1.489220e+02, 1.886318e-20
497, 2, 4.239769e+02, 6.802279e-42, 5.230890e+01, -5.370297e-20, -1.489220e+02, 1.886318e-20
497, 3, 4.239769e+02, 6.802279e-42, 5.230890e+01, -5.370297e-20, -1.489220e+02, 1.886318e-20
497, 4, 4.239769e+02, 6.802279e-42, 5.230890e+01, -5.370297e-20, -1.489220e+02, 1.886318e-20
497, 5, 4.239769e+02, 6.802279e-42, 5.230890e+01, -5.370297e-20, -1.489220e+02, 1.886318e-20
497, 6, 4.239769e+02, 6.802279e-42, 5.230890e+01, -5.370297e-20, -1.489220e+02, 1.886318e-20
497, 7, 4.239769e+02, 6.802279e-42, 5.230890e+01, -5.370297e-20, -1.489220e+02, 1.886318e-20
497, 8, 4.239769e+02, 6.802279e-42, 5.230890e+01, -5.370297e-20, -1.489220e+02, 1.886318e-20
498, 1, 4.241086e+02, 6.262197e-42, 5.202919e+01, -5.153496e-20, -1.485464e+02, 1.805040e-20
498, 2, 4.241086e+02, 6.262197e-42, 5.202919e+01, -5.153496e-20, -1.485464e+02, 1.805040e-20
498, 3, 4.241086e+02, 6.262197e-42, 5.202919e+01, -5.153496e-20, -1.485464e+02, 1.805040e-20
498, 4, 4.241086e+02, 6.262197e-42, 5.202919e+01, -5.153496e-20, -1.485464e+02, 1.805040e-20
498, 5, 4.241086e+02, 6.262197e-42, 5.202919e+01, -5.153496e-20, -1.485464e+02, 1.805040e-20
498, 6, 4.241086e+02, 6.262197e-42, 5.202919e+01, -5.153496e-20, -1.485464e+02, 1.805040e-20
498, 7, 4.241086e+02, 6.262197e-42, 5.202919e+01, -5.153496e-20, -1.485464e+02, 1.805040e-20
498, 8, 4.241086e+02, 6.262197e-42, 5.202919e+01, -5.153496e-20, -1.485464e+02, 1.805040e-20
499, 1, 4.242960e+02, 3.233735e-41, 5.162658e+01, -1.171350e-19, -1.480032e+02, 4.085911e-20
499, 2, 4.242960e+02, 3.233735e-41, 5.162658e+01, -1.171350e-19, -1.480032e+02, 4.085911e-20
499, 3, 4.242960e+02, 3.233735e-41, 5.162658e+01, -1.171350e-19, -1.480032e+02, 4.085911e-20
499, 4, 4.242960e+02, 3.233735e-41, 5.162658e+01, -1.171350e-19, -1.480032e+02, 4.085911e-20
499, 5, 4.242960e+02, 3.233735e-41, 5.162658e+01, -1.171350e-19, -1.480032e+02, 4.085911e-20
499, 6, 4.242960e+02, 3.233735e-41, 5.162658e+01, -1.171350e-19, -1.480032e+02, 4.085911e-20
499, 7, 4.242960e+02, 3.233735e-41, 5.162658e+01, -1.171350e-19, -1.480032e+02, 4.085911e-20
499, 8, 4.242960e+02, 3.233735e-41, 5.162658e+01, -1.171350e-19, -1.480032e+02, 4.085911e-20
500, 1, 4.245584e+02, 2.890301e-41, 5.106817e+01, -1.107746e-19, -1.472461e+02, 3.841905e-20
500, 2, 4.245584e+02, 2.890301e-41, 5.106817e+01, -1.107746e-19, -1.472461e+02, 3.841905e-20
500, 3, 4.245584e+02, 2.890301e-41, 5.106817e+01, -1.107746e-19, -1.472461e+02, 3.841905e-20
500, 4, 4.245584e+02, 2.890301e-41, 5.106817e+01, -1.107746e-19, -1.472461e+02, 3.841905e-20
500, 5, 4.245584e+02, 2.890301e-41, 5.106817e+01, -1.107746e-19, -1.472461e+02, 3.841905e-20
500, 6, 4.245584e+02, 2.890301e-41, 5.106817e+01, -1.107746e-19, -1.472461e+02, 3.841905e-20
500, 7, 4.245584e+02, 2.890301e-41, 5.106817e+01, -1.107746e-19, -1.472461e+02, 3.841905e-20
500, 8, 4.245584e+02, 2.890301e-41, 5.106817e+01, -1.107746e-19, -1.472461e+02, 3.841905e-20
501, 1, 4.247915e+02, 3.669001e-42, 5.057724e+01, -3.947861e-20, -1.465769e+02, 1.362233e-20
501, 2, 4.247915e+02, 3.669001e-42, 5.057724e+01, -3.947861e-20, -1.465769e+02, 1.362233e-20
501, 3, 4.247915e+02, 3.669001e-42, 5.057724e+01, -3.947861e-20, -1.465769e+02, 1.362233e-20
501, 4, 4.247915e+02, 3.669001e-42, 5.057724e+01, -3.947861e-20, -1.465769e+02, 1.362233e-20
501, 5, 4.247915e+02, 3.669001e-42, 5.057724e+01, -3.947861e-20, -1.465769e+02, 1.362233e-20
501, 6, 4.247915e+02, 3.669001e-42, 5.057724e+01, -3.947861e-20, -1.465769e+02, 1.362233e-20
501, 7, 4.247915e+02, 3.669001e-42, 5.057724e+01, -3.947861e-20, -1.465769e+02, 1.362233e-20
501, 8, 4.247915e+02, 3.669001e-42, 5.057724e+01, -3.947861e-20, -1.465769e+02, 1.362233e-20
502, 1, 4.249211e+02, 3.187057e-42, 5.030187e+01, -3.680011e-20, -1.461996e+02, 1.266155e-20
502, 2, 4.249211e+02, 3.187057e-42, 5.030187e+01, -3.680011e-20, -1.461996e+02, 1.266155e-20
502, 3, 4.249211e+02, 3.187057e-42, 5.030187e+01, -3.680011e-20, -1.461996e+02, 1.266155e-20
502, 4, 4.249211e+02, 3.187057e-42, 5.030187e+01, -3.680011e-20, -1.461996e+02, 1.266155e-20
502, 5, 4.249211e+02, 3.187057e-42, 5.030187e+01, -3.680011e-20, -1.461996e+02, 1.266155e-20
502, 6, 4.249211e+02, 3.187057e-42, 5.030187e+01, -3.680011e-20, -1.461996e+02, 1.266155e-20
502, 7, 4.249211e+02, 3.187057e-42, 5.030187e+01, -3.680011e-20, -1.461996e+02, 1.266155e-20
502, 8, 4.249211e+02, 3.187057e-42, 5.030187e+01, -3.680011e-20, -1.461996e+02, 1.266155e-20
503, 1, 4.251064e+02, 1.931818e-41, 4.990576e+01, -9.062164e-20, -1.456546e+02, 3.104977e-20
503, 2, 4.251064e+02, 1.931818e-41, 4.990576e+01, -9.062164e-20, -1.456546e+02, 3.104977e-20
503, 3, 4.251064e+02, 1.931818e-41, 4.990576e+01, -9.062164e-20, -1.456546e+02, 3.104977e-20
503, 4, 4.251064e+02, 1.931818e-41, 4.990576e+01, -9.062164e-20, -1.456546e+02, 3.104977e-20
503, 5, 4.251064e+02, 1.931818e-41, 4.990576e+01, -9.062164e-20, -1.456546e+02, 3.104977e-20
503, 6, 4.251064e+02, 1.931818e-41, 4.990576e+01, -9.062164e-20, -1.456546e+02, 3.104977e-20
503, 7, 4.251064e+02, 1.931818e-41, 4.990576e+01, -9.062164e-20, -1.456546e+02, 3.104977e-20
503, 8, 4.251064e+02, 1.931818e-41, 4.990576e+01, -9.062164e-20, -1.456546e+02, 3.104977e-20
504, 1, 4.253666e+02, 1.635995e-41, 4.935632e+01, -8.342047e-20, -1.448949e+02, 2.841596e-20
504, 2, 4.253666e+02, 1.635995e-41, 4.935632e+01, -8.342047e-20, -1.448949e+02, 2.841596e-20
504, 3, 4.253666e+02, 1.635995e-41, 4.935632e+01, -8.342047e-20, -1.448949e+02, 2.841596e-20
504, 4, 4.253666e+02, 1.635995e-41, 4.935632e+01, -8.342047e-20, -1.448949e+02, 2.841596e-20
504, 5, 4.253666e+02, 1.635995e-41, 4.935632e+01, -8.342047e-20, -1.448949e+02, 2.841596e-20
504, 6, 4.253666e+02, 1.635995e-41, 4.935632e+01, -8.342047e-20, -1.448949e+02, 2.841596e-20
504, 7, 4.253666e+02, 1.635995e-41, 4.935632e+01, -8.342047e-20, -1.448949e+02, 2.841596e-20
504, 8, 4.253666e+02, 1.635995e-41, 4.935632e+01, -8.342047e-20, -1.448949e+02, 2.841596e-20
505, 1, 4.255566e+02, 1.329444e-42, 4.895998e+01, -2.378558e-20, -1.443442e+02, 8.067810e-21
505, 2, 4.255566e+02, 1.329444e-42, 4.895998e+01, -2.378558e-20, -1.443442e+02, 8.067810e-21
505, 3, 4.255566e+02, 1.329444e-42, 4.895998e+01, -2.378558e-20, -1.443442e+02, 8.067810e-21
505, 4, 4.255566e+02, 1.329444e-42, 4.895998e+01, -2.378558e-20, -1.443442e+02, 8.067810e-21
505, 5, 4.255566e+02, 1.329444e-42, 4.895998e+01, -2.378558e-20, -1.443442e+02, 8.067810e-21
505, 6, 4.255566e+02, 1.329444e-42, 4.895998e+01, -2.378558e-20, -1.443442e+02, 8.067810e-21
505, 7, 4.255566e+02, 1.329444e-42, 4.895998e+01, -2.378558e-20, -1.443442e+02, 8.067810e-21
505, 8, 4.255566e+02, 1.329444e-42, 4.895998e+01, -2.378558e-20, -1.443442e+02, 8.067810e-21
506, 1, 4.256844e+02, 1.109879e-42, 4.868876e+01, -2.173610e-20, -1.439654e+02, 7.351098e-21
506, 2, 4.256844e+02, 1.109879e-42, 4.868876e+01, -2.173610e-20, -1.439654e+02, 7.351098e-21
506, 3, 4.256844e+02, 1.109879e-42, 4.868876e+01, -2.173610e-20, -1.439654e+02, 7.351098e-21
506, 4, 4.256844e+02, 1.109879e-42, 4.868876e+01, -2.173610e-20, -1.439654e+02, 7.351098e-21
506, 5, 4.256844e+02, 1.109879e-42, 4.868876e+01, -2.173610e-20, -1.439654e+02, 7.351098e-21
506, 6, 4.256844e+02, 1.109879e-42, 4.868876e+01, -2.173610e-20, -1.439654e+02, 7.351098e-21
506, 7, 4.256844e+02, 1.109879e-42, 4.868876e+01, -2.173610e-20, -1.439654e+02, 7.351098e-21
506, 8, 4.256844e+02, 1.109879e-42, 4.868876e+01, -2.173610e-20, -1.439654e+02, 7.351098e-21
507, 1, 4.258680e+02, 9.582443e-42, 4.829885e+01, -6.388158e-20, -1.434187e+02, 2.151327e-20
507, 2, 4.258680e+02, 9.582443e-42, 4.829885e+01, -6.388158e-20, -1.434187e+02, 2.151327e-20
507, 3, 4.258680e+02, 9.582443e-42, 4.829885e+01, -6.388158e-20, -1.434187e+02, 2.151327e-20
507, 4, 4.258680e+02, 9.582443e-42, 4.829885e+01, -6.388158e-20, -1.434187e+02, 2.151327e-20
507, 5, 4.258680e+02, 9.582443e-42, 4.829885e+01, -6.388158e-20, -1.434187e+02, 2.151327e-20
507, 6, 4.258680e+02, 9.582443e-42, 4.829885e+01, -6.388158e-20, -1.434187e+02, 2.151327e-20
507, 7, 4.258680e+02, 9.582443e-42, 4.829885e+01, -6.388158e-20, -1.434187e+02, 2.151327e-20
507, 8, 4.258680e+02, 9.582443e-42, 4.829885e+01, -6.388158e-20, -1.434187e+02, 2.151327e-20
508, 1, 4.261243e+02, 6.839064e-42, 4.775775e+01, -5.398418e-20, -1.426560e+02, 1.807258e-20
508, 2, 4.261243e+02, 6.839064e-42, 4.775775e+01, -5.398418e-20, -1.426560e+02, 1.807258e-20
508, 3, 4.261243e+02, 6.839064e-42, 4.775775e+01, -5.398418e-20, -1.426560e+02, 1.807258e-20
508, 4, 4.261243e+02, 6.839064e-42, 4.775775e+01, -5.398418e-20, -1.426560e+02, 1.807258e-20
508, 5, 4.261243e+02, 6.839064e-42, 4.775775e+01, -5.398418e-20, -1.426560e+02, 1.807258e-20
508, 6, 4.261243e+02, 6.839064e-42, 4.775775e+01, -5.398418e-20, -1.426560e+02, 1.807258e-20
508, 7, 4.261243e+02, 6.839064e-42, 4.775775e+01, -5.398418e-20, -1.426560e+02, 1.807258e-20
508, 8, 4.261243e+02, 6.839064e-42, 4.775775e+01, -5.398418e-20, -1.426560e+02, 1.807258e-20
509, 1, 4.263087e+02, 1.718430e-43, 4.736710e+01, -8.559098e-21, -1.421021e+02, 2.853017e-21
509, 2, 4.263087e+02, 1.718430e-43, 4.736710e+01, -8.559098e-21, -1.421021e+02, 2.853017e-21
509, 3, 4.263087e+02, 1.718430e-43, 4.736710e+01, -8.559098e-21, -1.421021e+02, 2.853017e-21
509, 4, 4.263087e+02, 1.718430e-43, 4.736710e+01, -8.559098e-21, -1.421021e+02, 2.853017e-21
509, 5, 4.263087e+02, 1.718430e-43, 4.736710e+01, -8.559098e-21, -1.421021e+02, 2.853017e-21
509, 6, 4.263087e+02, 1.718430e-43, 4.736710e+01, -8.559098e-21, -1.421021e+02, 2.853017e-21
509, 7, 4.263087e+02, 1.718430e-43, 4.736710e+01, -8.559098e-21, -1.421021e+02, 2.853017e-21
509, 8, 4.263087e+02, 1.718430e-43, 4.736710e+01, -8.559098e-21, -1.421021e+02, 2.853017e-21
510, 1, 4.264365e+02, 1.035700e-43, 4.710027e+01, -6.645753e-21, -1.417225e+02, 2.208659e-21
510, 2, 4.264365e+02, 1.035700e-43, 4.710027e+01, -6.645753e-21, -1.417225e+02, 2.208659e-21
510, 3, 4.264365e+02, 1.035700e-43, 4.710027e+01, -6.645753e-21, -1.417225e+02, 2.208659e-21
510, 4, 4.264365e+02, 1.035700e-43, 4.710027e+01, -6.645753e-21, -1.417225e+02, 2.208659e-21
510, 5, 4.264365e+02, 1.035700e-43, 4.710027e+01, -6.645753e-21, -1.417225e+02, 2.208659e-21
510, 6, 4.264365e+02, 1.035700e-43, 4.710027e+01, -6.645753e-21, -1.417225e+02, 2.208659e-21
510, 7, 4.264365e+02, 1.035700e-43, 4.710027e+01, -6.645753e-21, -1.417225e+02, 2.208659e-21
510, 8, 4.264365e+02, 1.035700e-43, 4.710027e+01, -6.645753e-21, -1.417225e+02, 2.208659e-21
511, 1, 4.266164e+02, 2.766513e-42, 4.671635e+01, -3.435462e-20, -1.411735e+02, 1.136844e-20
511, 2, 4.266164e+02, 2.766513e-42, 4.671635e+01, -3.435462e-20, -1.411735e+02, 1.136844e-20
511, 3, 4.266164e+02, 2.766513e-42, 4.671635e+01, -3.435462e-20, -1.411735e+02, 1.136844e-20
511, 4, 4.266164e+02, 2.766513e-42, 4.671635e+01, -3.435462e-20, -1.411735e+02, 1.136844e-20
511, 5, 4.266164e+02, 2.766513e-42, 4.671635e+01, -3.435462e-20, -1.411735e+02, 1.136844e-20
511, 6, 4.266164e+02, 2.766513e-42, 4.671635e+01, -3.435462e-20, -1.411735e+02, 1.136844e-20
511, 7, 4.266164e+02, 2.766513e-42, 4.671635e+01, -3.435462e-20, -1.411735e+02, 1.136844e-20
511, 8, 4.266164e+02, 2.766513e-42, 4.671635e+01, -3.435462e-20, -1.411735e+02, 1.136844e-20
512, 1, 4.268688e+02, 1.457332e-42, 4.618364e+01, -2.494172e-20, -1.404078e+02, 8.203956e-21
512, 2, 4.268688e+02, 1.457332e-42, 4.618364e+01, -2.494172e-20, -1.404078e+02, 8.203956e-21
512, 3, 4.268688e+02, 1.457332e-42, 4.618364e+01, -2.494172e-20, -1.404078e+02, 8.203956e-21
512, 4, 4.268688e+02, 1.457332e-42, 4.618364e+01, -2.494172e-20, -1.404078e+02, 8.203956e-21
512, 5, 4.268688e+02, 1.457332e-42, 4.618364e+01, -2.494172e-20, -1.404078e+02, 8.203956e-21
512, 6, 4.268688e+02, 1.457332e-42, 4.618364e+01, -2.494172e-20, -1.404078e+02, 8.203956e-21
512, 7, 4.268688e+02, 1.457332e-42, 4.618364e+01, -2.494172e-20, -1.404078e+02, 8.203956e-21
512, 8, 4.268688e+02, 1.457332e-42, 4.618364e+01, -2.494172e-20, -1.404078e+02, 8.203956e-21
513, 1, 4.270514e+02, 1.516760e-43, 4.579917e+01, 8.048197e-21, -1.398521e+02, -2.635647e-21
513, 2, 4.270514e+02, 1.516760e-43, 4.579917e+01, 8.048197e-21, -1.398521e+02, -2.635647e-21
513, 3, 4.270514e+02, 1.516760e-43, 4.579917e+01, 8.048197e-21, -1.398521e+02, -2.635647e-21
513, 4, 4.270514e+02, 1.516760e-43, 4.579917e+01, 8.048197e-21, -1.398521e+02, -2.635647e-21
513, 5, 4.270514e+02, 1.516760e-43, 4.579917e+01, 8.048197e-21, -1.398521e+02, -2.635647e-21
513, 6, 4.270514e+02, 1.516760e-43, 4.579917e+01, 8.048197e-21, -1.398521e+02, -2.635647e-21
513, 7, 4.270514e+02, 1.516760e-43, 4.579917e+01, 8.048197e-21, -1.398521e+02, -2.635647e-21
513, 8, 4.270514e+02, 1.516760e-43, 4.579917e+01, 8.048197e-21, -1.398521e+02, -2.635647e-21
514, 1, 4.271793e+02, 2.936606e-43, 4.553673e+01, 1.120026e-20, -1.394717e+02, -3.656821e-21
514, 2, 4.271793e+02, 2.936606e-43, 4.553673e+01, 1.120026e-20, -1.394717e+02, -3.656821e-21
514, 3, 4.271793e+02, 2.936606e-43, 4.553673e+01, 1.120026e-20, -1.394717e+02, -3.656821e-21
514, 4, 4.271793e+02, 2.936606e-43, 4.553673e+01, 1.120026e-20, -1.394717e+02, -3.656821e-21
514, 5, 4.271793e+02, 2.936606e-43, 4.553673e+01, 1.120026e-20, -1.394717e+02, -3.656821e-21
514, 6, 4.271793e+02, 2.936606e-43, 4.553673e+01, 1.120026e-20, -1.394717e+02, -3.656821e-21
514, 7, 4.271793e+02, 2.936606e-43, 4.553673e+01, 1.120026e-20, -1.394717e+02, -3.656821e-21
514, 8, 4.271793e+02, 2.936606e-43, 4.553673e+01, 1.120026e-20, -1.394717e+02, -3.656821e-21
515, 1, 4.273966e+02, 2.025861e-44, 4.507506e+01, -2.942526e-21, -1.387982e+02, 9.555931e-22
515, 2, 4.273966e+02, 2.025861e-44, 4.507506e+01, -2.942526e-21, -1.387982e+02, 9.555931e-22
515, 3, 4.273966e+02, 2.025861e-44, 4.507506e+01, -2.942526e-21, -1.387982e+02, 9.555931e-22
515, 4, 4.273966e+02, 2.025861e-44, 4.507506e+01, -2.942526e-21, -1.387982e+02, 9.555931e-22
515, 5, 4.273966e+02, 2.025861e-44, 4.507506e+01, -2.942526e-21, -1.387982e+02, 9.555931e-22
515, 6, 4.273966e+02, 2.025861e-44, 4.507506e+01, -2.942526e-21, -1.387982e+02, 9.555931e-22
515, 7, 4.273966e+02, 2.025861e-44, 4.507506e+01, -2.942526e-21, -1.387982e+02, 9.555931e-22
515, 8, 4.273966e+02, 2.025861e-44, 4.507506e+01, -2.942526e-21, -1.387982e+02, 9.555931e-22
516, 1, 4.276447e+02, 1.985407e-43, 4.455120e+01, 9.214384e-21, -1.380293e+02, -2.974093e-21
516, 2, 4.276447e+02, 1.985407e-43, 4.455120e+01, 9.214384e-21, -1.380293e+02, -2.974093e-21
516, 3, 4.276447e+02, 1.985407e-43, 4.455120e+01, 9.214384e-21, -1.380293e+02, -2.974093e-21
516, 4, 4.276447e+02, 1.985407e-43, 4.455120e+01, 9.214384e-21, -1.380293e+02, -2.974093e-21
516, 5, 4.276447e+02, 1.985407e-43, 4.455120e+01, 9.214384e-21, -1.380293e+02, -2.974093e-21
516, 6, 4.276447e+02, 1.985407e-43, 4.455120e+01, 9.214384e-21, -1.380293e+02, -2.974093e-21
516, 7, 4.276447e+02, 1.985407e-43, 4.455120e+01, 9.214384e-21, -1.380293e+02, -2.974093e-21
516, 8, 4.276447e+02, 1.985407e-43, 4.455120e+01, 9.214384e-21, -1.380293e+02, -2.974093e-21
517, 1, 4.278253e+02, 1.739508e-42, 4.417324e+01, 2.728013e-20, -1.374716e+02, -8.765826e-21
517, 2, 4.278253e+02, 1.739508e-42, 4.417324e+01, 2.728013e-20, -1.374716e+02, -8.765826e-21
517, 3, 4.278253e+02, 1.739508e-42, 4.417324e+01, 2.728013e-20, -1.374716e+02, -8.765826e-21
517, 4, 4.278253e+02, 1.739508e-42, 4.417324e+01, 2.728013e-20, -1.374716e+02, -8.765826e-21
517, 5, 4.278253e+02, 1.739508e-42, 4.417324e+01, 2.728013e-20, -1.374716e+02, -8.765826e-21
517, 6, 4.278253e+02, 1.739508e-42, 4.417324e+01, 2.728013e-20, -1.374716e+02, -8.765826e-21
517, 7, 4.278253e+02, 1.739508e-42, 4.417324e+01, 2.728013e-20, -1.374716e+02, -8.765826e-21
517, 8, 4.278253e+02, 1.739508e-42, 4.417324e+01, 2.728013e-20, -1.374716e+02, -8.765826e-21
518, 1, 4.279470e+02, 2.068340e-42, 4.391478e+01, 2.975130e-20, -1.370883e+02, -9.530514e-21
518, 2, 4.279470e+02, 2.068340e-42, 4.391478e+01, 2.975130e-20, -1.370883e+02, -9.530514e-21
518, 3, 4.279470e+02, 2.068340e-42, 4.391478e+01, 2.975130e-20, -1.370883e+02, -9.530514e-21
518, 4, 4.279470e+02, 2.068340e-42, 4.391478e+01, 2.975130e-20, -1.370883e+02, -9.530514e-21
518, 5, 4.279470e+02, 2.068340e-42, 4.391478e+01, 2.975130e-20, -1.370883e+02, -9.530514e-21
518, 6, 4.279470e+02, 2.068340e-42, 4.391478e+01, 2.975130e-20, -1.370883e+02, -9.530514e-21
518, 7, 4.279470e+02, 2.068340e-42, 4.391478e+01, 2.975130e-20, -1.370883e+02, -9.530514e-21
518, 8, 4.279470e+02, 2.068340e-42, 4.391478e+01, 2.975130e-20, -1.370883e+02, -9.530514e-21
519, 1, 4.281230e+02, 2.141195e-42, 4.354367e+01, 3.027697e-20, -1.365359e+02, -9.655854e-21
519, 2, 4.281230e+02, 2.141195e-42, 4.354367e+01, 3.027697e-20, -1.365359e+02, -9.655854e-21
519, 3, 4.281230e+02, 2.141195e-42, 4.354367e+01, 3.027697e-20, -1.365359e+02, -9.655854e-21
519, 4, 4.281230e+02, 2.141195e-42, 4.354367e+01, 3.027697e-20, -1.365359e+02, -9.655854e-21
519, 5, 4.281230e+02, 2.141195e-42, 4.354367e+01, 3.027697e-20, -1.365359e+02, -9.655854e-21
519, 6, 4.281230e+02, 2.141195e-42, 4.354367e+01, 3.027697e-20, -1.365359e+02, -9.655854e-21
519, 7, 4.281230e+02, 2.141195e-42, 4.354367e+01, 3.027697e-20, -1.365359e+02, -9.655854e-21
519, 8, 4.281230e+02, 2.141195e-42, 4.354367e+01, 3.027697e-20, -1.365359e+02, -9.655854e-21
520, 1, 4.283691e+02, 4.838258e-42, 4.302848e+01, 4.552538e-20, -1.357648e+02, -1.442854e-20
520, 2, 4.283691e+02, 4.838258e-42, 4.302848e+01, 4.552538e-20, -1.357648e+02, -1.442854e-20
520, 3, 4.283691e+02, 4.838258e-42, 4.302848e+01, 4.552538e-20, -1.357648e+02, -1.442854e-20
520, 4, 4.283691e+02, 4.838258e-42, 4.302848e+01, 4.552538e-20, -1.357648e+02, -1.442854e-20
520, 5, 4.283691e+02, 4.838258e-42, 4.302848e+01, 4.552538e-20, -1.357648e+02, -1.442854e-20
520, 6, 4.283691e+02, 4.838258e-42, 4.302848e+01, 4.552538e-20, -1.357648e+02, -1.442854e-20
520, 7, 4.283691e+02, 4.838258e-42, 4.302848e+01, 4.552538e-20, -1.357648e+02, -1.442854e-20
520, 8, 4.283691e+02, 4.838258e-42, 4.302848e+01, 4.552538e-20, -1.357648e+02, -1.442854e-20
521, 1, 4.285460e+02, 4.897746e-42, 4.265652e+01, 4.581386e-20, -1.352046e+02, -1.445409e-20
521, 2, 4.285460e+02, 4.897746e-42, 4.265652e+01, 4.581386e-20, -1.352046e+02, -1.445409e-20
521, 3, 4.285460e+02, 4.897746e-42, 4.265652e+01, 4.581386e-20, -1.352046e+02, -1.445409e-20
521, 4, 4.285460e+02, 4.897746e-42, 4.265652e+01, 4.581386e-20, -1.352046e+02, -1.445409e-20
521, 5, 4.285460e+02, 4.897746e-42, 4.265652e+01, 4.581386e-20, -1.352046e+02, -1.445409e-20
521, 6, 4.285460e+02, 4.897746e-42, 4.265652e+01, 4.581386e-20, -1.352046e+02, -1.445409e-20
521, 7, 4.285460e+02, 4.897746e-42, 4.265652e+01, 4.581386e-20, -1.352046e+02, -1.445409e-20
521, 8, 4.285460e+02, 4.897746e-42, 4.265652e+01, 4.581386e-20, -1.352046e+02, -1.445409e-20
522, 1, 4.286698e+02, 5.682641e-42, 4.240269e+01, 4.935561e-20, -1.348212e+02, -1.552286e-20
522, 2, 4.286698e+02, 5.682641e-42, 4.240269e+01, 4.935561e-20, -1.348212e+02, -1.552286e-20
522, 3, 4.286698e+02, 5.682641e-42, 4.240269e+01, 4.935561e-20, -1.348212e+02, -1.552286e-20
522, 4, 4.286698e+02, 5.682641e-42, 4.240269e+01, 4.935561e-20, -1.348212e+02, -1.552286e-20
522, 5, 4.286698e+02, 5.682641e-42, 4.240269e+01, 4.935561e-20, -1.348212e+02, -1.552286e-20
522, 6, 4.286698e+02, 5.682641e-42, 4.240269e+01, 4.935561e-20, -1.348212e+02, -1.552286e-20
522, 7, 4.286698e+02, 5.682641e-42, 4.240269e+01, 4.935561e-20, -1.348212e+02, -1.552286e-20
522, 8, 4.286698e+02, 5.682641e-42, 4.240269e+01, 4.935561e-20, -1.348212e+02, -1.552286e-20
523, 1, 4.288420e+02, 8.732560e-42, 4.203764e+01, 6.119550e-20, -1.342665e+02, -1.915976e-20
523, 2, 4.288420e+02, 8.732560e-42, 4.203764e+01, 6.119550e-20, -1.342665e+02, -1.915976e-20
523, 3, 4.288420e+02, 8.732560e-42, 4.203764e+01, 6.119550e-20, -1.342665e+02, -1.915976e-20
523, 4, 4.288420e+02, 8.732560e-42, 4.203764e+01, 6.119550e-20, -1.342665e+02, -1.915976e-20
523, 5, 4.288420e+02, 8.732560e-42, 4.203764e+01, 6.119550e-20, -1.342665e+02, -1.915976e-20
523, 6, 4.288420e+02, 8.732560e-42, 4.203764e+01, 6.119550e-20, -1.342665e+02, -1.915976e-20
523, 7, 4.288420e+02, 8.732560e-42, 4.203764e+01, 6.119550e-20, -1.342665e+02, -1.915976e-20
523, 8, 4.288420e+02, 8.732560e-42, 4.203764e+01, 6.119550e-20, -1.342665e+02, -1.915976e-20
524, 1, 4.290821e+02, 1.111482e-41, 4.153073e+01, 6.905919e-20, -1.334919e+02, -2.148504e-20
524, 2, 4.290821e+02, 1.111482e-41, 4.153073e+01, 6.905919e-20, -1.334919e+02, -2.148504e-20
524, 3, 4.290821e+02, 1.111482e-41, 4.153073e+01, 6.905919e-20, -1.334919e+02, -2.148504e-20
524, 4, 4.290821e+02, 1.111482e-41, 4.153073e+01, 6.905919e-20, -1.334919e+02, -2.148504e-20
524, 5, 4.290821e+02, 1.111482e-41, 4.153073e+01, 6.905919e-20, -1.334919e+02, -2.148504e-20
524, 6, 4.290821e+02, 1.111482e-41, 4.153073e+01, 6.905919e-20, -1.334919e+02, -2.148504e-20
524, 7, 4.290821e+02, 1.111482e-41, 4.153073e+01, 6.905919e-20, -1.334919e+02, -2.148504e-20
524, 8, 4.290821e+02, 1.111482e-41, 4.153073e+01, 6.905919e-20, -1.334919e+02, -2.148504e-20
525, 1, 4.292572e+02, 1.013490e-41, 4.116502e+01, 6.595815e-20, -1.329300e+02, -2.042555e-20
525, 2, 4.292572e+02, 1.013490e-41, 4.116502e+01, 6.595815e-20, -1.329300e+02, -2.042555e-20
525, 3, 4.292572e+02, 1.013490e-41, 4.116502e+01, 6.595815e-20, -1.329300e+02, -2.042555e-20
525, 4, 4.292572e+02, 1.013490e-41, 4.116502e+01, 6.595815e-20, -1.329300e+02, -2.042555e-20
525, 5, 4.292572e+02, 1.013490e-41, 4.116502e+01, 6.595815e-20, -1.329300e+02, -2.042555e-20
525, 6, 4.292572e+02, 1.013490e-41, 4.116502e+01, 6.595815e-20, -1.329300e+02, -2.042555e-20
525, 7, 4.292572e+02, 1.013490e-41, 4.116502e+01, 6.595815e-20, -1.329300e+02, -2.042555e-20
525, 8, 4.292572e+02, 1.013490e-41, 4.116502e+01, 6.595815e-20, -1.329300e+02, -2.042555e-20
526, 1, 4.293770e+02, 1.123226e-41, 4.091522e+01, 6.944691e-20, -1.325445e+02, -2.143759e-20
526, 2, 4.293770e+02, 1.123226e-41, 4.091522e+01, 6.944691e-20, -1.325445e+02, -2.143759e-20
526, 3, 4.293770e+02, 1.123226e-41, 4.091522e+01, 6.944691e-20, -1.325445e+02, -2.143759e-20
526, 4, 4.293770e+02, 1.123226e-41, 4.091522e+01, 6.944691e-20, -1.325445e+02, -2.143759e-20
526, 5, 4.293770e+02, 1.123226e-41, 4.091522e+01, 6.944691e-20, -1.325445e+02, -2.143759e-20
526, 6, 4.293770e+02, 1.123226e-41, 4.091522e+01, 6.944691e-20, -1.325445e+02, -2.143759e-20
526, 7, 4.293770e+02, 1.123226e-41, 4.091522e+01, 6.944691e-20, -1.325445e+02, -2.143759e-20
526, 8, 4.293770e+02, 1.123226e-41, 4.091522e+01, 6.944691e-20, -1.325445e+02, -2.143759e-20
527, 1, 4.295474e+02, 1.717725e-41, 4.055646e+01, 8.589786e-20, -1.319883e+02, -2.639410e-20
527, 2, 4.295474e+02, 1.717725e-41, 4.055646e+01, 8.589786e-20, -1.319883e+02, -2.639410e-20
527, 3, 4.295474e+02, 1.717725e-41, 4.055646e+01, 8.589786e-20, -1.319883e+02, -2.639410e-20
527, 4, 4.295474e+02, 1.717725e-41, 4.055646e+01, 8.589786e-20, -1.319883e+02, -2.639410e-20
527, 5, 4.295474e+02, 1.717725e-41, 4.055646e+01, 8.589786e-20, -1.319883e+02, -2.639410e-20
527, 6, 4.295474e+02, 1.717725e-41, 4.055646e+01, 8.589786e-20, -1.319883e+02, -2.639410e-20
527, 7, 4.295474e+02, 1.717725e-41, 4.055646e+01, 8.589786e-20, -1.319883e+02, -2.639410e-20
527, 8, 4.295474e+02, 1.717725e-41, 4.055646e+01, 8.589786e-20, -1.319883e+02, -2.639410e-20
528, 1, 4.305873e+02, 3.730594e-41, 3.837965e+01, 1.267417e-19, -1.285527e+02, -3.783899e-20
528, 2, 4.305873e+02, 3.730594e-41, 3.837965e+01, 1.267417e-19, -1.285527e+02, -3.783899e-20
528, 3, 4.305873e+02, 3.730594e-41, 3.837965e+01, 1.267417e-19, -1.285527e+02, -3.783899e-20
528, 4, 4.305873e+02, 3.730594e-41, 3.837965e+01, 1.267417e-19, -1.285527e+02, -3.783899e-20
528, 5, 4.305873e+02, 3.730594e-41, 3.837965e+01, 1.267417e-19, -1.285527e+02, -3.783899e-20
528, 6, 4.305873e+02, 3.730594e-41, 3.837965e+01, 1.267417e-19, -1.285527e+02, -3.783899e-20
528, 7, 4.305873e+02, 3.730594e-41, 3.837965e+01, 1.267417e-19, -1.285527e+02, -3.783899e-20
528, 8, 4.305873e+02, 3.730594e-41, 3.837965e+01, 1.267417e-19, -1.285527e+02, -3.783899e-20
529, 1, 4.307579e+02, 3.039998e-41, 3.802743e+01, 1.144335e-19, -1.279868e+02, -3.400049e-20
529, 2, 4.307579e+02, 3.039998e-41, 3.802743e+01, 1.144335e-19, -1.279868e+02, -3.400049e-20
529, 3, 4.307579e+02, 3.039998e-41, 3.802743e+01, 1.144335e-19, -1.279868e+02, -3.400049e-20
529, 4, 4.307579e+02, 3.039998e-41, 3.802743e+01, 1.144335e-19, -1.279868e+02, -3.400049e-20
529, 5, 4.307579e+02, 3.039998e-41, 3.802743e+01, 1.144335e-19, -1.279868e+02, -3.400049e-20
529, 6, 4.307579e+02, 3.039998e-41, 3.802743e+01, 1.144335e-19, -1.279868e+02, -3.400049e-20
529, 7, 4.307579e+02, 3.039998e-41, 3.802743e+01, 1.144335e-19, -1.279868e+02, -3.400049e-20
529, 8, 4.307579e+02, 3.039998e-41, 3.802743e+01, 1.144335e-19, -1.279868e+02, -3.400049e-20
530, 1, 4.308730e+02, 3.222233e-41, 3.778680e+01, 1.178293e-19, -1.275982e+02, -3.489383e-20
530, 2, 4.308730e+02, 3.222233e-41, 3.778680e+01, 1.178293e-19, -1.275982e+02, -3.489383e-20
530, 3, 4.308730e+02, 3.222233e-41, 3.778680e+01, 1.178293e-19, -1.275982e+02, -3.489383e-20
530, 4, 4.308730e+02, 3.222233e-41, 3.778680e+01, 1.178293e-19, -1.275982e+02, -3.489383e-20
530, 5, 4.308730e+02, 3.222233e-41, 3.778680e+01, 1.178293e-19, -1.275982e+02, -3.489383e-20
530, 6, 4.308730e+02, 3.222233e-41, 3.778680e+01, 1.178293e-19, -1.275982e+02, -3.489383e-20
530, 7, 4.308730e+02, 3.222233e-41, 3.778680e+01, 1.178293e-19, -1.275982e+02, -3.489383e-20
530, 8, 4.308730e+02, 3.222233e-41, 3.778680e+01, 1.178293e-19, -1.275982e+02, -3.489383e-20
531, 1, 4.310367e+02, 4.851129e-41, 3.744144e+01, 1.446034e-19, -1.270379e+02, -4.261845e-20
531, 2, 4.310367e+02, 4.851129e-41, 3.744144e+01, 1.446034e-19, -1.270379e+02, -4.261845e-20
531, 3, 4.310367e+02, 4.851129e-41, 3.744144e+01, 1.446034e-19, -1.270379e+02, -4.261845e-20
531, 4, 4.310367e+02, 4.851129e-41, 3.744144e+01, 1.446034e-19, -1.270379e+02, -4.261845e-20
531, 5, 4.310367e+02, 4.851129e-41, 3.744144e+01, 1.446034e-19, -1.270379e+02, -4.261845e-20
531, 6, 4.310367e+02, 4.851129e-41, 3.744144e+01, 1.446034e-19, -1.270379e+02, -4.261845e-20
531, 7, 4.310367e+02, 4.851129e-41, 3.744144e+01, 1.446034e-19, -1.270379e+02, -4.261845e-20
531, 8, 4.310367e+02, 4.851129e-41, 3.744144e+01, 1.446034e-19, -1.270379e+02, -4.261845e-20
532, 1, 4.312674e+02, 5.523376e-41, 3.696191e+01, 1.543390e-19, -1.262556e+02, -4.518346e-20
532, 2, 4.312674e+02, 5.523376e-41, 3.696191e+01, 1.543390e-19, -1.262556e+02, -4.518346e-20
532, 3, 4.312674e+02, 5.523376e-41, 3.696191e+01, 1.543390e-19, -1.262556e+02, -4.518346e-20
532, 4, 4.312674e+02, 5.523376e-41, 3.696191e+01, 1.543390e-19, -1.262556e+02, -4.518346e-20
532, 5, 4.312674e+02, 5.523376e-41, 3.696191e+01, 1.543390e-19, -1.262556e+02, -4.518346e-20
532, 6, 4.312674e+02, 5.523376e-41, 3.696191e+01, 1.543390e-19, -1.262556e+02, -4.518346e-20
532, 7, 4.312674e+02, 5.523376e-41, 3.696191e+01, 1.543390e-19, -1.262556e+02, -4.518346e-20
532, 8, 4.312674e+02, 5.523376e-41, 3.696191e+01, 1.543390e-19, -1.262556e+02, -4.518346e-20
533, 1, 4.314341e+02, 4.406714e-41, 3.661582e+01, 1.378843e-19, -1.256874e+02, -4.016908e-20
533, 2, 4.314341e+02, 4.406714e-41, 3.661582e+01, 1.378843e-19, -1.256874e+02, -4.016908e-20
533, 3, 4.314341e+02, 4.406714e-41, 3.661582e+01, 1.378843e-19, -1.256874e+02, -4.016908e-20
533, 4, 4.314341e+02, 4.406714e-41, 3.661582e+01, 1.378843e-19, -1.256874e+02, -4.016908e-20
533, 5, 4.314341e+02, 4.406714e-41, 3.661582e+01, 1.378843e-19, -1.256874e+02, -4.016908e-20
533, 6, 4.314341e+02, 4.406714e-41, 3.661582e+01, 1.378843e-19, -1.256874e+02, -4.016908e-20
533, 7, 4.314341e+02, 4.406714e-41, 3.661582e+01, 1.378843e-19, -1.256874e+02, -4.016908e-20
533, 8, 4.314341e+02, 4.406714e-41, 3.661582e+01, 1.378843e-19, -1.256874e+02, -4.016908e-20
534, 1, 4.315491e+02, 4.837975e-41, 3.637965e+01, 1.444930e-19, -1.252981e+02, -4.195281e-20
534, 2, 4.315491e+02, 4.837975e-41, 3.637965e+01, 1.444930e-19, -1.252981e+02, -4.195281e-20
534, 3, 4.315491e+02, 4.837975e-41, 3.637965e+01, 1.444930e-19, -1.252981e+02, -4.195281e-20
534, 4, 4.315491e+02, 4.837975e-41, 3.637965e+01, 1.444930e-19, -1.252981e+02, -4.195281e-20
534, 5, 4.315491e+02, 4.837975e-41, 3.637965e+01, 1.444930e-19, -1.252981e+02, -4.195281e-20
534, 6, 4.315491e+02, 4.837975e-41, 3.637965e+01, 1.444930e-19, -1.252981e+02, -4.195281e-20
534, 7, 4.315491e+02, 4.837975e-41, 3.637965e+01, 1.444930e-19, -1.252981e+02, -4.195281e-20
534, 8, 4.315491e+02, 4.837975e-41, 3.637965e+01, 1.444930e-19, -1.252981e+02, -4.195281e-20
535, 1, 4.317090e+02, 7.051051e-41, 3.604045e+01, 1.744707e-19, -1.247357e+02, -5.041062e-20
535, 2, 4.317090e+02, 7.051051e-41, 3.604045e+01, 1.744707e-19, -1.247357e+02, -5.041062e-20
535, 3, 4.317090e+02, 7.051051e-41, 3.604045e+01, 1.744707e-19, -1.247357e+02, -5.041062e-20
535, 4, 4.317090e+02, 7.051051e-41, 3.604045e+01, 1.744707e-19, -1.247357e+02, -5.041062e-20
535, 5, 4.317090e+02, 7.051051e-41, 3.604045e+01, 1.744707e-19, -1.247357e+02, -5.041062e-20
535, 6, 4.317090e+02, 7.051051e-41, 3.604045e+01, 1.744707e-19, -1.247357e+02, -5.041062e-20
535, 7, 4.317090e+02, 7.051051e-41, 3.604045e+01, 1.744707e-19, -1.247357e+02, -5.041062e-20
535, 8, 4.317090e+02, 7.051051e-41, 3.604045e+01, 1.744707e-19, -1.247357e+02, -5.041062e-20
536, 1, 4.319355e+02, 7.836056e-41, 3.556954e+01, 1.839747e-19, -1.239506e+02, -5.279441e-20
536, 2, 4.319355e+02, 7.836056e-41, 3.556954e+01, 1.839747e-19, -1.239506e+02, -5.279441e-20
536, 3, 4.319355e+02, 7.836056e-41, 3.556954e+01, 1.839747e-19, -1.239506e+02, -5.279441e-20
536, 4, 4.319355e+02, 7.836056e-41, 3.556954e+01, 1.839747e-19, -1.239506e+02, -5.279441e-20
536, 5, 4.319355e+02, 7.836056e-41, 3.556954e+01, 1.839747e-19, -1.239506e+02, -5.279441e-20
536, 6, 4.319355e+02, 7.836056e-41, 3.556954e+01, 1.839747e-19, -1.239506e+02, -5.279441e-20
536, 7, 4.319355e+02, 7.836056e-41, 3.556954e+01, 1.839747e-19, -1.239506e+02, -5.279441e-20
536, 8, 4.319355e+02, 7.836056e-41, 3.556954e+01, 1.839747e-19, -1.239506e+02, -5.279441e-20
537, 1, 4.320982e+02, 6.301351e-41, 3.522962e+01, 1.650092e-19, -1.233801e+02, -4.711626e-20
537, 2, 4.320982e+02, 6.301351e-41, 3.522962e+01, 1.650092e-19, -1.233801e+02, -4.711626e-20
537, 3, 4.320982e+02, 6.301351e-41, 3.522962e+01, 1.650092e-19, -1.233801e+02, -4.711626e-20
537, 4, 4.320982e+02, 6.301351e-41, 3.522962e+01, 1.650092e-19, -1.233801e+02, -4.711626e-20
537, 5, 4.320982e+02, 6.301351e-41, 3.522962e+01, 1.650092e-19, -1.233801e+02, -4.711626e-20
537, 6, 4.320982e+02, 6.301351e-41, 3.522962e+01, 1.650092e-19, -1.233801e+02, -4.711626e-20
537, 7, 4.320982e+02, 6.301351e-41, 3.522962e+01, 1.650092e-19, -1.233801e+02, -4.711626e-20
537, 8, 4.320982e+02, 6.301351e-41, 3.522962e+01, 1.650092e-19, -1.233801e+02, -4.711626e-20
538, 1, 4.322113e+02, 6.632904e-41, 3.499775e+01, 1.693167e-19, -1.229895e+02, -4.818057e-20
538, 2, 4.322113e+02, 6.632904e-41, 3.499775e+01, 1.693167e-19, -1.229895e+02, -4.818057e-20
538, 3, 4.322113e+02, 6.632904e-41, 3.499775e+01, 1.693167e-19, -1.229895e+02, -4.818057e-20
538, 4, 4.322113e+02, 6.632904e-41, 3.499775e+01, 1.693167e-19, -1.229895e+02, -4.818057e-20
538, 5, 4.322113e+02, 6.632904e-41, 3.499775e+01, 1.693167e-19, -1.229895e+02, -4.818057e-20
538, 6, 4.322113e+02, 6.632904e-41, 3.499775e+01, 1.693167e-19, -1.229895e+02, -4.818057e-20
538, 7, 4.322113e+02, 6.632904e-41, 3.499775e+01, 1.693167e-19, -1.229895e+02, -4.818057e-20
538, 8, 4.322113e+02, 6.632904e-41, 3.499775e+01, 1.693167e-19, -1.229895e+02, -4.818057e-20
539, 1, 4.323692e+02, 7.878902e-41, 3.466490e+01, 1.845696e-19, -1.224256e+02, -5.226102e-20
539, 2, 4.323692e+02, 7.878902e-41, 3.466490e+01, 1.845696e-19, -1.224256e+02, -5.226102e-20
539, 3, 4.323692e+02, 7.878902e-41, 3.466490e+01, 1.845696e-19, -1.224256e+02, -5.226102e-20
539, 4, 4.323692e+02, 7.878902e-41, 3.466490e+01, 1.845696e-19, -1.224256e+02, -5.226102e-20
539, 5, 4.323692e+02, 7.878902e-41, 3.466490e+01, 1.845696e-19, -1.224256e+02, -5.226102e-20
539, 6, 4.323692e+02, 7.878902e-41, 3.466490e+01, 1.845696e-19, -1.224256e+02, -5.226102e-20
539, 7, 4.323692e+02, 7.878902e-41, 3.466490e+01, 1.845696e-19, -1.224256e+02, -5.226102e-20
539, 8, 4.323692e+02, 7.878902e-41, 3.466490e+01, 1.845696e-19, -1.224256e+02, -5.226102e-20
540, 1, 4.325915e+02, 8.748339e-41, 3.420265e+01, 1.945368e-19, -1.216379e+02, -5.470068e-20
540, 2, 4.325915e+02, 8.748339e-41, 3.420265e+01, 1.945368e-19, -1.216379e+02, -5.470068e-20
540, 3, 4.325915e+02, 8.748339e-41, 3.420265e+01, 1.945368e-19, -1.216379e+02, -5.470068e-20
540, 4, 4.325915e+02, 8.748339e-41, 3.420265e+01, 1.945368e-19, -1.216379e+02, -5.470068e-20
540, 5, 4.325915e+02, 8.748339e-41, 3.420265e+01, 1.945368e-19, -1.216379e+02, -5.470068e-20
540, 6, 4.325915e+02, 8.748339e-41, 3.420265e+01, 1.945368e-19, -1.216379e+02, -5.470068e-20
540, 7, 4.325915e+02, 8.748339e-41, 3.420265e+01, 1.945368e-19, -1.216379e+02, -5.470068e-20
540, 8, 4.325915e+02, 8.748339e-41, 3.420265e+01, 1.945368e-19, -1.216379e+02, -5.470068e-20
541, 1, 4.327904e+02, 8.742901e-41, 3.379527e+01, 1.945210e-19, -1.209391e+02, -5.435703e-20
541, 2, 4.327904e+02, 8.742901e-41, 3.379527e+01, 1.945210e-19, -1.209391e+02, -5.435703e-20
541, 3, 4.327904e+02, 8.742901e-41, 3.379527e+01, 1.945210e-19, -1.209391e+02, -5.435703e-20
541, 4, 4.327904e+02, 8.742901e-41, 3.379527e+01, 1.945210e-19, -1.209391e+02, -5.435703e-20
541, 5, 4.327904e+02, 8.742901e-41, 3.379527e+01, 1.945210e-19, -1.209391e+02, -5.435703e-20
541, 6, 4.327904e+02, 8.742901e-41, 3.379527e+01, 1.945210e-19, -1.209391e+02, -5.435703e-20
541, 7, 4.327904e+02, 8.742901e-41, 3.379527e+01, 1.945210e-19, -1.209391e+02, -5.435703e-20
541, 8, 4.327904e+02, 8.742901e-41, 3.379527e+01, 1.945210e-19, -1.209391e+02, -5.435703e-20
542, 1, 4.328970e+02, 9.145596e-41, 3.356761e+01, 1.989749e-19, -1.205459e+02, -5.540720e-20
542, 2, 4.328970e+02, 9.145596e-41, 3.356761e+01, 1.989749e-19, -1.205459e+02, -5.540720e-20
542, 3, 4.328970e+02, 9.145596e-41, 3.356761e+01, 1.989749e-19, -1.205459e+02, -5.540720e-20
542, 4, 4.328970e+02, 9.145596e-41, 3.356761e+01, 1.989749e-19, -1.205459e+02, -5.540720e-20
542, 5, 4.328970e+02, 9.145596e-41, 3.356761e+01, 1.989749e-19, -1.205459e+02, -5.540720e-20
542, 6, 4.328970e+02, 9.145596e-41, 3.356761e+01, 1.989749e-19, -1.205459e+02, -5.540720e-20
542, 7, 4.328970e+02, 9.145596e-41, 3.356761e+01, 1.989749e-19, -1.205459e+02, -5.540720e-20
542, 8, 4.328970e+02, 9.145596e-41, 3.356761e+01, 1.989749e-19, -1.205459e+02, -5.540720e-20
543, 1, 4.330548e+02, 1.069370e-40, 3.324162e+01, 2.151966e-19, -1.199810e+02, -5.962181e-20
543, 2, 4.330548e+02, 1.069370e-40, 3.324162e+01, 2.151966e-19, -1.199810e+02, -5.962181e-20
543, 3, 4.330548e+02, 1.069370e-40, 3.324162e+01, 2.151966e-19, -1.199810e+02, -5.962181e-20
543, 4, 4.330548e+02, 1.069370e-40, 3.324162e+01, 2.151966e-19, -1.199810e+02, -5.962181e-20
543, 5, 4.330548e+02, 1.069370e-40, 3.324162e+01, 2.151966e-19, -1.199810e+02, -5.962181e-20
543, 6, 4.330548e+02, 1.069370e-40, 3.324162e+01, 2.151966e-19, -1.199810e+02, -5.962181e-20
543, 7, 4.330548e+02, 1.069370e-40, 3.324162e+01, 2.151966e-19, -1.199810e+02, -5.962181e-20
543, 8, 4.330548e+02, 1.069370e-40, 3.324162e+01, 2.151966e-19, -1.199810e+02, -5.962181e-20
544, 1, 4.332725e+02, 1.165490e-40, 3.278853e+01, 2.247164e-19, -1.191905e+02, -6.181803e-20
544, 2, 4.332725e+02, 1.165490e-40, 3.278853e+01, 2.247164e-19, -1.191905e+02, -6.181803e-20
544, 3, 4.332725e+02, 1.165490e-40, 3.278853e+01, 2.247164e-19, -1.191905e+02, -6.181803e-20
544, 4, 4.332725e+02, 1.165490e-40, 3.278853e+01, 2.247164e-19, -1.191905e+02, -6.181803e-20
544, 5, 4.332725e+02, 1.165490e-40, 3.278853e+01, 2.247164e-19, -1.191905e+02, -6.181803e-20
544, 6, 4.332725e+02, 1.165490e-40, 3.278853e+01, 2.247164e-19, -1.191905e+02, -6.181803e-20
544, 7, 4.332725e+02, 1.165490e-40, 3.278853e+01, 2.247164e-19, -1.191905e+02, -6.181803e-20
544, 8, 4.332725e+02, 1.165490e-40, 3.278853e+01, 2.247164e-19, -1.191905e+02, -6.181803e-20
545, 1, 4.334311e+02, 1.141090e-40, 3.246168e+01, 2.223925e-19, -1.186166e+02, -6.086190e-20
545, 2, 4.334311e+02, 1.141090e-40, 3.246168e+01, 2.223925e-19, -1.186166e+02, -6.086190e-20
545, 3, 4.334311e+02, 1.141090e-40, 3.246168e+01, 2.223925e-19, -1.186166e+02, -6.086190e-20
545, 4, 4.334311e+02, 1.141090e-40, 3.246168e+01, 2.223925e-19, -1.186166e+02, -6.086190e-20
545, 5, 4.334311e+02, 1.141090e-40, 3.246168e+01, 2.223925e-19, -1.186166e+02, -6.086190e-20
545, 6, 4.334311e+02, 1.141090e-40, 3.246168e+01, 2.223925e-19, -1.186166e+02, -6.086190e-20
545, 7, 4.334311e+02, 1.141090e-40, 3.246168e+01, 2.223925e-19, -1.186166e+02, -6.086190e-20
545, 8, 4.334311e+02, 1.141090e-40, 3.246168e+01, 2.223925e-19, -1.186166e+02, -6.086190e-20
546, 1, 4.335398e+02, 1.200668e-40, 3.223867e+01, 2.281529e-19, -1.182233e+02, -6.221570e-20
546, 2, 4.335398e+02, 1.200668e-40, 3.223867e+01, 2.281529e-19, -1.182233e+02, -6.221570e-20
546, 3, 4.335398e+02, 1.200668e-40, 3.223867e+01, 2.281529e-19, -1.182233e+02, -6.221570e-20
546, 4, 4.335398e+02, 1.200668e-40, 3.223867e+01, 2.281529e-19, -1.182233e+02, -6.221570e-20
546, 5, 4.335398e+02, 1.200668e-40, 3.223867e+01, 2.281529e-19, -1.182233e+02, -6.221570e-20
546, 6, 4.335398e+02, 1.200668e-40, 3.223867e+01, 2.281529e-19, -1.182233e+02, -6.221570e-20
546, 7, 4.335398e+02, 1.200668e-40, 3.223867e+01, 2.281529e-19, -1.182233e+02, -6.221570e-20
546, 8, 4.335398e+02, 1.200668e-40, 3.223867e+01, 2.281529e-19, -1.182233e+02, -6.221570e-20
547, 1, 4.336936e+02, 1.284531e-40, 3.191891e+01, 2.360281e-19, -1.176564e+02, -6.403188e-20
547, 2, 4.336936e+02, 1.284531e-40, 3.191891e+01, 2.360281e-19, -1.176564e+02, -6.403188e-20
547, 3, 4.336936e+02, 1.284531e-40, 3.191891e+01, 2.360281e-19, -1.176564e+02, -6.403188e-20
547, 4, 4.336936e+02, 1.284531e-40, 3.191891e+01, 2.360281e-19, -1.176564e+02, -6.403188e-20
547, 5, 4.336936e+02, 1.284531e-40, 3.191891e+01, 2.360281e-19, -1.176564e+02, -6.403188e-20
547, 6, 4.336936e+02, 1.284531e-40, 3.191891e+01, 2.360281e-19, -1.176564e+02, -6.403188e-20
547, 7, 4.336936e+02, 1.284531e-40, 3.191891e+01, 2.360281e-19, -1.176564e+02, -6.403188e-20
547, 8, 4.336936e+02, 1.284531e-40, 3.191891e+01, 2.360281e-19, -1.176564e+02, -6.403188e-20
548, 1, 4.339070e+02, 1.381711e-40, 3.147453e+01, 2.448539e-19, -1.168633e+02, -6.594598e-20
548, 2, 4.339070e+02, 1.381711e-40, 3.147453e+01, 2.448539e-19, -1.168633e+02, -6.594598e-20
548, 3, 4.339070e+02, 1.381711e-40, 3.147453e+01, 2.448539e-19, -1.168633e+02, -6.594598e-20
548, 4, 4.339070e+02, 1.381711e-40, 3.147453e+01, 2.448539e-19, -1.168633e+02, -6.594598e-20
548, 5, 4.339070e+02, 1.381711e-40, 3.147453e+01, 2.448539e-19, -1.168633e+02, -6.594598e-20
548, 6, 4.339070e+02, 1.381711e-40, 3.147453e+01, 2.448539e-19, -1.168633e+02, -6.594598e-20
548, 7, 4.339070e+02, 1.381711e-40, 3.147453e+01, 2.448539e-19, -1.168633e+02, -6.594598e-20
548, 8, 4.339070e+02, 1.381711e-40, 3.147453e+01, 2.448539e-19, -1.168633e+02, -6.594598e-20
549, 1, 4.340617e+02, 1.477722e-40, 3.115393e+01, 2.532632e-19, -1.162873e+02, -6.785047e-20
549, 2, 4.340617e+02, 1.477722e-40, 3.115393e+01, 2.532632e-19, -1.162873e+02, -6.785047e-20
549, 3, 4.340617e+02, 1.477722e-40, 3.115393e+01, 2.532632e-19, -1.162873e+02, -6.785047e-20
549, 4, 4.340617e+02, 1.477722e-40, 3.115393e+01, 2.532632e-19, -1.162873e+02, -6.785047e-20
549, 5, 4.340617e+02, 1.477722e-40, 3.115393e+01, 2.532632e-19, -1.162873e+02, -6.785047e-20
549, 6, 4.340617e+02, 1.477722e-40, 3.115393e+01, 2.532632e-19, -1.162873e+02, -6.785047e-20
549, 7, 4.340617e+02, 1.477722e-40, 3.115393e+01, 2.532632e-19, -1.162873e+02, -6.785047e-20
549, 8, 4.340617e+02, 1.477722e-40, 3.115393e+01, 2.532632e-19, -1.162873e+02, -6.785047e-20
550, 1, 4.341682e+02, 1.550214e-40, 3.093527e+01, 2.594328e-19, -1.158927e+02, -6.925047e-20
550, 2, 4.341682e+02, 1.550214e-40, 3.093527e+01, 2.594328e-19, -1.158927e+02, -6.925047e-20
550, 3, 4.341682e+02, 1.550214e-40, 3.093527e+01, 2.594328e-19, -1.158927e+02, -6.925047e-20
550, 4, 4.341682e+02, 1.550214e-40, 3.093527e+01, 2.594328e-19, -1.158927e+02, -6.925047e-20
550, 5, 4.341682e+02, 1.550214e-40, 3.093527e+01, 2.594328e-19, -1.158927e+02, -6.925047e-20
550, 6, 4.341682e+02, 1.550214e-40, 3.093527e+01, 2.594328e-19, -1.158927e+02, -6.925047e-20
550, 7, 4.341682e+02, 1.550214e-40, 3.093527e+01, 2.594328e-19, -1.158927e+02, -6.925047e-20
550, 8, 4.341682e+02, 1.550214e-40, 3.093527e+01, 2.594328e-19, -1.158927e+02, -6.925047e-20
551, 1, 4.343181e+02, 1.566107e-40, 3.062175e+01, 2.608043e-19, -1.153238e+02, -6.925095e-20
551, 2, 4.343181e+02, 1.566107e-40, 3.062175e+01, 2.608043e-19, -1.153238e+02, -6.925095e-20
551, 3, 4.343181e+02, 1.566107e-40, 3.062175e+01, 2.608043e-19, -1.153238e+02, -6.925095e-20
551, 4, 4.343181e+02, 1.566107e-40, 3.062175e+01, 2.608043e-19, -1.153238e+02, -6.925095e-20
551, 5, 4.343181e+02, 1.566107e-40, 3.062175e+01, 2.608043e-19, -1.153238e+02, -6.925095e-20
551, 6, 4.343181e+02, 1.566107e-40, 3.062175e+01, 2.608043e-19, -1.153238e+02, -6.925095e-20
551, 7, 4.343181e+02, 1.566107e-40, 3.062175e+01, 2.608043e-19, -1.153238e+02, -6.925095e-20
551, 8, 4.343181e+02, 1.566107e-40, 3.062175e+01, 2.608043e-19, -1.153238e+02, -6.925095e-20
552, 1, 4.345293e+02, 1.569926e-40, 3.018628e+01, 2.611855e-19, -1.145287e+02, -6.884056e-20
552, 2, 4.345293e+02, 1.569926e-40, 3.018628e+01, 2.611855e-19, -1.145287e+02, -6.884056e-20
552, 3, 4.345293e+02, 1.569926e-40, 3.018628e+01, 2.611855e-19, -1.145287e+02, -6.884056e-20
552, 4, 4.345293e+02, 1.569926e-40, 3.018628e+01, 2.611855e-19, -1.145287e+02, -6.884056e-20
552, 5, 4.345293e+02, 1.569926e-40, 3.018628e+01, 2.611855e-19, -1.145287e+02, -6.884056e-20
552, 6, 4.345293e+02, 1.569926e-40, 3.018628e+01, 2.611855e-19, -1.145287e+02, -6.884056e-20
552, 7, 4.345293e+02, 1.569926e-40, 3.018628e+01, 2.611855e-19, -1.145287e+02, -6.884056e-20
552, 8, 4.345293e+02, 1.569926e-40, 3.018628e+01, 2.611855e-19, -1.145287e+02, -6.884056e-20
553, 1, 4.346800e+02, 1.868799e-40, 2.987196e+01, 2.850139e-19, -1.139506e+02, -7.471592e-20
553, 2, 4.346800e+02, 1.868799e-40, 2.987196e+01, 2.850139e-19, -1.139506e+02, -7.471592e-20
553, 3, 4.346800e+02, 1.868799e-40, 2.987196e+01, 2.850139e-19, -1.139506e+02, -7.471592e-20
553, 4, 4.346800e+02, 1.868799e-40, 2.987196e+01, 2.850139e-19, -1.139506e+02, -7.471592e-20
553, 5, 4.346800e+02, 1.868799e-40, 2.987196e+01, 2.850139e-19, -1.139506e+02, -7.471592e-20
553, 6, 4.346800e+02, 1.868799e-40, 2.987196e+01, 2.850139e-19, -1.139506e+02, -7.471592e-20
553, 7, 4.346800e+02, 1.868799e-40, 2.987196e+01, 2.850139e-19, -1.139506e+02, -7.471592e-20
553, 8, 4.346800e+02, 1.868799e-40, 2.987196e+01, 2.850139e-19, -1.139506e+02, -7.471592e-20
554, 1, 4.347844e+02, 1.970520e-40, 2.965766e+01, 2.927032e-19, -1.135548e+02, -7.644673e-20
554, 2, 4.347844e+02, 1.970520e-40, 2.965766e+01, 2.927032e-19, -1.135548e+02, -7.644673e-20
554, 3, 4.347844e+02, 1.970520e-40, 2.965766e+01, 2.927032e-19, -1.135548e+02, -7.644673e-20
554, 4, 4.347844e+02, 1.970520e-40, 2.965766e+01, 2.927032e-19, -1.135548e+02, -7.644673e-20
554, 5, 4.347844e+02, 1.970520e-40, 2.965766e+01, 2.927032e-19, -1.135548e+02, -7.644673e-20
554, 6, 4.347844e+02, 1.970520e-40, 2.965766e+01, 2.927032e-19, -1.135548e+02, -7.644673e-20
554, 7, 4.347844e+02, 1.970520e-40, 2.965766e+01, 2.927032e-19, -1.135548e+02, -7.644673e-20
554, 8, 4.347844e+02, 1.970520e-40, 2.965766e+01, 2.927032e-19, -1.135548e+02, -7.644673e-20
555, 1, 4.349679e+02, 1.804970e-40, 2.928130e+01, 2.801971e-19, -1.128558e+02, -7.269928e-20
555, 2, 4.349679e+02, 1.804970e-40, 2.928130e+01, 2.801971e-19, -1.128558e+02, -7.269928e-20
555, 3, 4.349679e+02, 1.804970e-40, 2.928130e+01, 2.801971e-19, -1.128558e+02, -7.269928e-20
555, 4, 4.349679e+02, 1.804970e-40, 2.928130e+01, 2.801971e-19, -1.128558e+02, -7.269928e-20
555, 5, 4.349679e+02, 1.804970e-40, 2.928130e+01, 2.801971e-19, -1.128558e+02, -7.269928e-20
555, 6, 4.349679e+02, 1.804970e-40, 2.928130e+01, 2.801971e-19, -1.128558e+02, -7.269928e-20
555, 7, 4.349679e+02, 1.804970e-40, 2.928130e+01, 2.801971e-19, -1.128558e+02, -7.269928e-20
555, 8, 4.349679e+02, 1.804970e-40, 2.928130e+01, 2.801971e-19, -1.128558e+02, -7.269928e-20
556, 1, 4.351723e+02, 1.942616e-40, 2.885494e+01, 2.907529e-19, -1.120574e+02, -7.486926e-20
556, 2, 4.351723e+02, 1.942616e-40, 2.885494e+01, 2.907529e-19, -1.120574e+02, -7.486926e-20
556, 3, 4.351723e+02, 1.942616e-40, 2.885494e+01, 2.907529e-19, -1.120574e+02, -7.486926e-20
556, 4, 4.351723e+02, 1.942616e-40, 2.885494e+01, 2.907529e-19, -1.120574e+02, -7.486926e-20
556, 5, 4.351723e+02, 1.942616e-40, 2.885494e+01, 2.907529e-19, -1.120574e+02, -7.486926e-20
556, 6, 4.351723e+02, 1.942616e-40, 2.885494e+01, 2.907529e-19, -1.120574e+02, -7.486926e-20
556, 7, 4.351723e+02, 1.942616e-40, 2.885494e+01, 2.907529e-19, -1.120574e+02, -7.486926e-20
556, 8, 4.351723e+02, 1.942616e-40, 2.885494e+01, 2.907529e-19, -1.120574e+02, -7.486926e-20
557, 1, 4.353206e+02, 2.388324e-40, 2.854741e+01, 3.224417e-19, -1.114777e+02, -8.257146e-20
557, 2, 4.353206e+02, 2.388324e-40, 2.854741e+01, 3.224417e-19, -1.114777e+02, -8.257146e-20
557, 3, 4.353206e+02, 2.388324e-40, 2.854741e+01, 3.224417e-19, -1.114777e+02, -8.257146e-20
557, 4, 4.353206e+02, 2.388324e-40, 2.854741e+01, 3.224417e-19, -1.114777e+02, -8.257146e-20
557, 5, 4.353206e+02, 2.388324e-40, 2.854741e+01, 3.224417e-19, -1.114777e+02, -8.257146e-20
557, 6, 4.353206e+02, 2.388324e-40, 2.854741e+01, 3.224417e-19, -1.114777e+02, -8.257146e-20
557, 7, 4.353206e+02, 2.388324e-40, 2.854741e+01, 3.224417e-19, -1.114777e+02, -8.257146e-20
557, 8, 4.353206e+02, 2.388324e-40, 2.854741e+01, 3.224417e-19, -1.114777e+02, -8.257146e-20
558, 1, 4.354227e+02, 2.463379e-40, 2.833772e+01, 3.275074e-19, -1.110805e+02, -8.355032e-20
558, 2, 4.354227e+02, 2.463379e-40, 2.833772e+01, 3.275074e-19, -1.110805e+02, -8.355032e-20
558, 3, 4.354227e+02, 2.463379e-40, 2.833772e+01, 3.275074e-19, -1.110805e+02, -8.355032e-20
558, 4, 4.354227e+02, 2.463379e-40, 2.833772e+01, 3.275074e-19, -1.110805e+02, -8.355032e-20
558, 5, 4.354227e+02, 2.463379e-40, 2.833772e+01, 3.275074e-19, -1.110805e+02, -8.355032e-20
558, 6, 4.354227e+02, 2.463379e-40, 2.833772e+01, 3.275074e-19, -1.110805e+02, -8.355032e-20
558, 7, 4.354227e+02, 2.463379e-40, 2.833772e+01, 3.275074e-19, -1.110805e+02, -8.355032e-20
558, 8, 4.354227e+02, 2.463379e-40, 2.833772e+01, 3.275074e-19, -1.110805e+02, -8.355032e-20
559, 1, 4.355683e+02, 2.246463e-40, 2.803737e+01, 3.128080e-19, -1.105088e+02, -7.936305e-20
559, 2, 4.355683e+02, 2.246463e-40, 2.803737e+01, 3.128080e-19, -1.105088e+02, -7.936305e-20
559, 3, 4.355683e+02, 2.246463e-40, 2.803737e+01, 3.128080e-19, -1.105088e+02, -7.936305e-20
559, 4, 4.355683e+02, 2.246463e-40, 2.803737e+01, 3.128080e-19, -1.105088e+02, -7.936305e-20
559, 5, 4.355683e+02, 2.246463e-40, 2.803737e+01, 3.128080e-19, -1.105088e+02, -7.936305e-20
559, 6, 4.355683e+02, 2.246463e-40, 2.803737e+01, 3.128080e-19, -1.105088e+02, -7.936305e-20
559, 7, 4.355683e+02, 2.246463e-40, 2.803737e+01, 3.128080e-19, -1.105088e+02, -7.936305e-20
559, 8, 4.355683e+02, 2.246463e-40, 2.803737e+01, 3.128080e-19, -1.105088e+02, -7.936305e-20
560, 1, 4.357704e+02, 2.397159e-40, 2.761997e+01, 3.232044e-19, -1.097086e+02, -8.136919e-20
560, 2, 4.357704e+02, 2.397159e-40, 2.761997e+01, 3.232044e-19, -1.097086e+02, -8.136919e-20
560, 3, 4.357704e+02, 2.397159e-40, 2.761997e+01, 3.232044e-19, -1.097086e+02, -8.136919e-20
560, 4, 4.357704e+02, 2.397159e-40, 2.761997e+01, 3.232044e-19, -1.097086e+02, -8.136919e-20
560, 5, 4.357704e+02, 2.397159e-40, 2.761997e+01, 3.232044e-19, -1.097086e+02, -8.136919e-20
560, 6, 4.357704e+02, 2.397159e-40, 2.761997e+01, 3.232044e-19, -1.097086e+02, -8.136919e-20
560, 7, 4.357704e+02, 2.397159e-40, 2.761997e+01, 3.232044e-19, -1.097086e+02, -8.136919e-20
560, 8, 4.357704e+02, 2.397159e-40, 2.761997e+01, 3.232044e-19, -1.097086e+02, -8.136919e-20
561, 1, 4.359168e+02, 2.948056e-40, 2.731891e+01, 3.584839e-19, -1.091273e+02, -8.974279e-20
561, 2, 4.359168e+02, 2.948056e-40, 2.731891e+01, 3.584839e-19, -1.091273e+02, -8.974279e-20
561, 3, 4.359168e+02, 2.948056e-40, 2.731891e+01, 3.584839e-19, -1.091273e+02, -8.974279e-20
561, 4, 4.359168e+02, 2.948056e-40, 2.731891e+01, 3.584839e-19, -1.091273e+02, -8.974279e-20
561, 5, 4.359168e+02, 2.948056e-40, 2.731891e+01, 3.584839e-19, -1.091273e+02, -8.974279e-20
561, 6, 4.359168e+02, 2.948056e-40, 2.731891e+01, 3.584839e-19, -1.091273e+02, -8.974279e-20
561, 7, 4.359168e+02, 2.948056e-40, 2.731891e+01, 3.584839e-19, -1.091273e+02, -8.974279e-20
561, 8, 4.359168e+02, 2.948056e-40, 2.731891e+01, 3.584839e-19, -1.091273e+02, -8.974279e-20
562, 1, 4.360167e+02, 3.045287e-40, 2.711362e+01, 3.643893e-19, -1.087290e+02, -9.086734e-20
562, 2, 4.360167e+02, 3.045287e-40, 2.711362e+01, 3.643893e-19, -1.087290e+02, -9.086734e-20
562, 3, 4.360167e+02, 3.045287e-40, 2.711362e+01, 3.643893e-19, -1.087290e+02, -9.086734e-20
562, 4, 4.360167e+02, 3.045287e-40, 2.711362e+01, 3.643893e-19, -1.087290e+02, -9.086734e-20
562, 5, 4.360167e+02, 3.045287e-40, 2.711362e+01, 3.643893e-19, -1.087290e+02, -9.086734e-20
562, 6, 4.360167e+02, 3.045287e-40, 2.711362e+01, 3.643893e-19, -1.087290e+02, -9.086734e-20
562, 7, 4.360167e+02, 3.045287e-40, 2.711362e+01, 3.643893e-19, -1.087290e+02, -9.086734e-20
562, 8, 4.360167e+02, 3.045287e-40, 2.711362e+01, 3.643893e-19, -1.087290e+02, -9.086734e-20
563, 1, 4.361604e+02, 2.838296e-40, 2.681970e+01, 3.518454e-19, -1.081559e+02, -8.724806e-20
563, 2, 4.361604e+02, 2.838296e-40, 2.681970e+01, 3.518454e-19, -1.081559e+02, -8.724806e-20
563, 3, 4.361604e+02, 2.838296e-40, 2.681970e+01, 3.518454e-19, -1.081559e+02, -8.724806e-20
563, 4, 4.361604e+02, 2.838296e-40, 2.681970e+01, 3.518454e-19, -1.081559e+02, -8.724806e-20
563, 5, 4.361604e+02, 2.838296e-40, 2.681970e+01, 3.518454e-19, -1.081559e+02, -8.724806e-20
563, 6, 4.361604e+02, 2.838296e-40, 2.681970e+01, 3.518454e-19, -1.081559e+02, -8.724806e-20
563, 7, 4.361604e+02, 2.838296e-40, 2.681970e+01, 3.518454e-19, -1.081559e+02, -8.724806e-20
563, 8, 4.361604e+02, 2.838296e-40, 2.681970e+01, 3.518454e-19, -1.081559e+02, -8.724806e-20
564, 1, 4.363560e+02, 3.155258e-40, 2.641102e+01, 3.710547e-19, -1.073527e+02, -9.128722e-20
564, 2, 4.363560e+02, 3.155258e-40, 2.641102e+01, 3.710547e-19, -1.073527e+02, -9.128722e-20
564, 3, 4.363560e+02, 3.155258e-40, 2.641102e+01, 3.710547e-19, -1.073527e+02, -9.128722e-20
564, 4, 4.363560e+02, 3.155258e-40, 2.641102e+01, 3.710547e-19, -1.073527e+02, -9.128722e-20
564, 5, 4.363560e+02, 3.155258e-40, 2.641102e+01, 3.710547e-19, -1.073527e+02, -9.128722e-20
564, 6, 4.363560e+02, 3.155258e-40, 2.641102e+01, 3.710547e-19, -1.073527e+02, -9.128722e-20
564, 7, 4.363560e+02, 3.155258e-40, 2.641102e+01, 3.710547e-19, -1.073527e+02, -9.128722e-20
564, 8, 4.363560e+02, 3.155258e-40, 2.641102e+01, 3.710547e-19, -1.073527e+02, -9.128722e-20
565, 1, 4.365004e+02, 3.580602e-40, 2.611645e+01, 3.953396e-19, -1.067700e+02, -9.670192e-20
565, 2, 4.365004e+02, 3.580602e-40, 2.611645e+01, 3.953396e-19, -1.067700e+02, -9.670192e-20
565, 3, 4.365004e+02, 3.580602e-40, 2.611645e+01, 3.953396e-19, -1.067700e+02, -9.670192e-20
565, 4, 4.365004e+02, 3.580602e-40, 2.611645e+01, 3.953396e-19, -1.067700e+02, -9.670192e-20
565, 5, 4.365004e+02, 3.580602e-40, 2.611645e+01, 3.953396e-19, -1.067700e+02, -9.670192e-20
565, 6, 4.365004e+02, 3.580602e-40, 2.611645e+01, 3.953396e-19, -1.067700e+02, -9.670192e-20
565, 7, 4.365004e+02, 3.580602e-40, 2.611645e+01, 3.953396e-19, -1.067700e+02, -9.670192e-20
565, 8, 4.365004e+02, 3.580602e-40, 2.611645e+01, 3.953396e-19, -1.067700e+02, -9.670192e-20
566, 1, 4.365981e+02, 3.697731e-40, 2.591556e+01, 4.017988e-19, -1.063705e+02, -9.789217e-20
566, 2, 4.365981e+02, 3.697731e-40, 2.591556e+01, 4.017988e-19, -1.063705e+02, -9.789217e-20
566, 3, 4.365981e+02, 3.697731e-40, 2.591556e+01, 4.017988e-19, -1.063705e+02, -9.789217e-20
566, 4, 4.365981e+02, 3.697731e-40, 2.591556e+01, 4.017988e-19, -1.063705e+02, -9.789217e-20
566, 5, 4.365981e+02, 3.697731e-40, 2.591556e+01, 4.017988e-19, -1.063705e+02, -9.789217e-20
566, 6, 4.365981e+02, 3.697731e-40, 2.591556e+01, 4.017988e-19, -1.063705e+02, -9.789217e-20
566, 7, 4.365981e+02, 3.697731e-40, 2.591556e+01, 4.017988e-19, -1.063705e+02, -9.789217e-20
566, 8, 4.365981e+02, 3.697731e-40, 2.591556e+01, 4.017988e-19, -1.063705e+02, -9.789217e-20
567, 1, 4.367377e+02, 3.882946e-40, 2.562572e+01, 4.118044e-19, -1.057909e+02, -9.975133e-20
567, 2, 4.367377e+02, 3.882946e-40, 2.562572e+01, 4.118044e-19, -1.057909e+02, -9.975133e-20
567, 3, 4.367377e+02, 3.882946e-40, 2.562572e+01, 4.118044e-19, -1.057909e+02, -9.975133e-20
567, 4, 4.367377e+02, 3.882946e-40, 2.562572e+01, 4.118044e-19, -1.057909e+02, -9.975133e-20
567, 5, 4.367377e+02, 3.882946e-40, 2.562572e+01, 4.118044e-19, -1.057909e+02, -9.975133e-20
567, 6, 4.367377e+02, 3.882946e-40, 2.562572e+01, 4.118044e-19, -1.057909e+02, -9.975133e-20
567, 7, 4.367377e+02, 3.882946e-40, 2.562572e+01, 4.118044e-19, -1.057909e+02, -9.975133e-20
567, 8, 4.367377e+02, 3.882946e-40, 2.562572e+01, 4.118044e-19, -1.057909e+02, -9.975133e-20
568, 1, 4.375938e+02, 5.147200e-40, 2.386602e+01, 4.745927e-19, -1.021940e+02, -1.108346e-19
568, 2, 4.375938e+02, 5.147200e-40, 2.386602e+01, 4.745927e-19, -1.021940e+02, -1.108346e-19
568, 3, 4.375938e+02, 5.147200e-40, 2.386602e+01, 4.745927e-19, -1.021940e+02, -1.108346e-19
568, 4, 4.375938e+02, 5.147200e-40, 2.386602e+01, 4.745927e-19, -1.021940e+02, -1.108346e-19
568, 5, 4.375938e+02, 5.147200e-40, 2.386602e+01, 4.745927e-19, -1.021940e+02, -1.108346e-19
568, 6, 4.375938e+02, 5.147200e-40, 2.386602e+01, 4.745927e-19, -1.021940e+02, -1.108346e-19
568, 7, 4.375938e+02, 5.147200e-40, 2.386602e+01, 4.745927e-19, -1.021940e+02, -1.108346e-19
568, 8, 4.375938e+02, 5.147200e-40, 2.386602e+01, 4.745927e-19, -1.021940e+02, -1.108346e-19
569, 1, 4.377287e+02, 5.343696e-40, 2.358757e+01, 4.836413e-19, -1.016118e+02, -1.122697e-19
569, 2, 4.377287e+02, 5.343696e-40, 2.358757e+01, 4.836413e-19, -1.016118e+02, -1.122697e-19
569, 3, 4.377287e+02, 5.343696e-40, 2.358757e+01, 4.836413e-19, -1.016118e+02, -1.122697e-19
569, 4, 4.377287e+02, 5.343696e-40, 2.358757e+01, 4.836413e-19, -1.016118e+02, -1.122697e-19
569, 5, 4.377287e+02, 5.343696e-40, 2.358757e+01, 4.836413e-19, -1.016118e+02, -1.122697e-19
569, 6, 4.377287e+02, 5.343696e-40, 2.358757e+01, 4.836413e-19, -1.016118e+02, -1.122697e-19
569, 7, 4.377287e+02, 5.343696e-40, 2.358757e+01, 4.836413e-19, -1.016118e+02, -1.122697e-19
569, 8, 4.377287e+02, 5.343696e-40, 2.358757e+01, 4.836413e-19, -1.016118e+02, -1.122697e-19
570, 1, 4.378235e+02, 5.543748e-40, 2.339643e+01, 4.926645e-19, -1.012102e+02, -1.138876e-19
570, 2, 4.378235e+02, 5.543748e-40, 2.339643e+01, 4.926645e-19, -1.012102e+02, -1.138876e-19
570, 3, 4.378235e+02, 5.543748e-40, 2.339643e+01, 4.926645e-19, -1.012102e+02, -1.138876e-19
570, 4, 4.378235e+02, 5.543748e-40, 2.339643e+01, 4.926645e-19, -1.012102e+02, -1.138876e-19
570, 5, 4.378235e+02, 5.543748e-40, 2.339643e+01, 4.926645e-19, -1.012102e+02, -1.138876e-19
570, 6, 4.378235e+02, 5.543748e-40, 2.339643e+01, 4.926645e-19, -1.012102e+02, -1.138876e-19
570, 7, 4.378235e+02, 5.543748e-40, 2.339643e+01, 4.926645e-19, -1.012102e+02, -1.138876e-19
570, 8, 4.378235e+02, 5.543748e-40, 2.339643e+01, 4.926645e-19, -1.012102e+02, -1.138876e-19
571, 1, 4.379558e+02, 5.761139e-40, 2.312059e+01, 5.023071e-19, -1.006270e+02, -1.154127e-19
571, 2, 4.379558e+02, 5.761139e-40, 2.312059e+01, 5.023071e-19, -1.006270e+02, -1.154127e-19
571, 3, 4.379558e+02, 5.761139e-40, 2.312059e+01, 5.023071e-19, -1.006270e+02, -1.154127e-19
571, 4, 4.379558e+02, 5.761139e-40, 2.312059e+01, 5.023071e-19, -1.006270e+02, -1.154127e-19
571, 5, 4.379558e+02, 5.761139e-40, 2.312059e+01, 5.023071e-19, -1.006270e+02, -1.154127e-19
571, 6, 4.379558e+02, 5.761139e-40, 2.312059e+01, 5.023071e-19, -1.006270e+02, -1.154127e-19
571, 7, 4.379558e+02, 5.761139e-40, 2.312059e+01, 5.023071e-19, -1.006270e+02, -1.154127e-19
571, 8, 4.379558e+02, 5.761139e-40, 2.312059e+01, 5.023071e-19, -1.006270e+02, -1.154127e-19
572, 1, 4.381430e+02, 6.087313e-40, 2.274056e+01, 5.164410e-19, -9.981791e+01, -1.176558e-19
572, 2, 4.381430e+02, 6.087313e-40, 2.274056e+01, 5.164410e-19, -9.981791e+01, -1.176558e-19
572, 3, 4.381430e+02, 6.087313e-40, 2.274056e+01, 5.164410e-19, -9.981791e+01, -1.176558e-19
572, 4, 4.381430e+02, 6.087313e-40, 2.274056e+01, 5.164410e-19, -9.981791e+01, -1.176558e-19
572, 5, 4.381430e+02, 6.087313e-40, 2.274056e+01, 5.164410e-19, -9.981791e+01, -1.176558e-19
572, 6, 4.381430e+02, 6.087313e-40, 2.274056e+01, 5.164410e-19, -9.981791e+01, -1.176558e-19
572, 7, 4.381430e+02, 6.087313e-40, 2.274056e+01, 5.164410e-19, -9.981791e+01, -1.176558e-19
572, 8, 4.381430e+02, 6.087313e-40, 2.274056e+01, 5.164410e-19, -9.981791e+01, -1.176558e-19
573, 1, 4.382759e+02, 6.364341e-40, 2.246863e+01, 5.281418e-19, -9.923436e+01, -1.195818e-19
573, 2, 4.382759e+02, 6.364341e-40, 2.246863e+01, 5.281418e-19, -9.923436e+01, -1.195818e-19
573, 3, 4.382759e+02, 6.364341e-40, 2.246863e+01, 5.281418e-19, -9.923436e+01, -1.195818e-19
573, 4, 4.382759e+02, 6.364341e-40, 2.246863e+01, 5.281418e-19, -9.923436e+01, -1.195818e-19
573, 5, 4.382759e+02, 6.364341e-40, 2.246863e+01, 5.281418e-19, -9.923436e+01, -1.195818e-19
573, 6, 4.382759e+02, 6.364341e-40, 2.246863e+01, 5.281418e-19, -9.923436e+01, -1.195818e-19
573, 7, 4.382759e+02, 6.364341e-40, 2.246863e+01, 5.281418e-19, -9.923436e+01, -1.195818e-19
573, 8, 4.382759e+02, 6.364341e-40, 2.246863e+01, 5.281418e-19, -9.923436e+01, -1.195818e-19
574, 1, 4.383663e+02, 6.520218e-40, 2.228183e+01, 5.346255e-19, -9.883118e+01, -1.205331e-19
574, 2, 4.383663e+02, 6.520218e-40, 2.228183e+01, 5.346255e-19, -9.883118e+01, -1.205331e-19
574, 3, 4.383663e+02, 6.520218e-40, 2.228183e+01, 5.346255e-19, -9.883118e+01, -1.205331e-19
574, 4, 4.383663e+02, 6.520218e-40, 2.228183e+01, 5.346255e-19, -9.883118e+01, -1.205331e-19
574, 5, 4.383663e+02, 6.520218e-40, 2.228183e+01, 5.346255e-19, -9.883118e+01, -1.205331e-19
574, 6, 4.383663e+02, 6.520218e-40, 2.228183e+01, 5.346255e-19, -9.883118e+01, -1.205331e-19
574, 7, 4.383663e+02, 6.520218e-40, 2.228183e+01, 5.346255e-19, -9.883118e+01, -1.205331e-19
574, 8, 4.383663e+02, 6.520218e-40, 2.228183e+01, 5.346255e-19, -9.883118e+01, -1.205331e-19
575, 1, 4.384966e+02, 6.853538e-40, 2.201252e+01, 5.482019e-19, -9.824671e+01, -1.228266e-19
575, 2, 4.384966e+02, 6.853538e-40, 2.201252e+01, 5.482019e-19, -9.824671e+01, -1.228266e-19
575, 3, 4.384966e+02, 6.853538e-40, 2.201252e+01, 5.482019e-19, -9.824671e+01, -1.228266e-19
575, 4, 4.384966e+02, 6.853538e-40, 2.201252e+01, 5.482019e-19, -9.824671e+01, -1.228266e-19
575, 5, 4.384966e+02, 6.853538e-40, 2.201252e+01, 5.482019e-19, -9.824671e+01, -1.228266e-19
575, 6, 4.384966e+02, 6.853538e-40, 2.201252e+01, 5.482019e-19, -9.824671e+01, -1.228266e-19
575, 7, 4.384966e+02, 6.853538e-40, 2.201252e+01, 5.482019e-19, -9.824671e+01, -1.228266e-19
575, 8, 4.384966e+02, 6.853538e-40, 2.201252e+01, 5.482019e-19, -9.824671e+01, -1.228266e-19
576, 1, 4.386793e+02, 7.208550e-40, 2.164145e+01, 5.623381e-19, -9.743539e+01, -1.249013e-19
576, 2, 4.386793e+02, 7.208550e-40, 2.164145e+01, 5.623381e-19, -9.743539e+01, -1.249013e-19
576, 3, 4.386793e+02, 7.208550e-40, 2.164145e+01, 5.623381e-19, -9.743539e+01, -1.249013e-19
576, 4, 4.386793e+02, 7.208550e-40, 2.164145e+01, 5.623381e-19, -9.743539e+01, -1.249013e-19
576, 5, 4.386793e+02, 7.208550e-40, 2.164145e+01, 5.623381e-19, -9.743539e+01, -1.249013e-19
576, 6, 4.386793e+02, 7.208550e-40, 2.164145e+01, 5.623381e-19, -9.743539e+01, -1.249013e-19
576, 7, 4.386793e+02, 7.208550e-40, 2.164145e+01, 5.623381e-19, -9.743539e+01, -1.249013e-19
576, 8, 4.386793e+02, 7.208550e-40, 2.164145e+01, 5.623381e-19, -9.743539e+01, -1.249013e-19
577, 1, 4.388080e+02, 7.452760e-40, 2.137595e+01, 5.718681e-19, -9.685007e+01, -1.262180e-19
577, 2, 4.388080e+02, 7.452760e-40, 2.137595e+01, 5.718681e-19, -9.685007e+01, -1.262180e-19
577, 3, 4.388080e+02, 7.452760e-40, 2.137595e+01, 5.718681e-19, -9.685007e+01, -1.262180e-19
577, 4, 4.388080e+02, 7.452760e-40, 2.137595e+01, 5.718681e-19, -9.685007e+01, -1.262180e-19
577, 5, 4.388080e+02, 7.452760e-40, 2.137595e+01, 5.718681e-19, -9.685007e+01, -1.262180e-19
577, 6, 4.388080e+02, 7.452760e-40, 2.137595e+01, 5.718681e-19, -9.685007e+01, -1.262180e-19
577, 7, 4.388080e+02, 7.452760e-40, 2.137595e+01, 5.718681e-19, -9.685007e+01, -1.262180e-19
577, 8, 4.388080e+02, 7.452760e-40, 2.137595e+01, 5.718681e-19, -9.685007e+01, -1.262180e-19
578, 1, 4.388962e+02, 7.736052e-40, 2.119362e+01, 5.826940e-19, -9.644582e+01, -1.280449e-19
578, 2, 4.388962e+02, 7.736052e-40, 2.119362e+01, 5.826940e-19, -9.644582e+01, -1.280449e-19
578, 3, 4.388962e+02, 7.736052e-40, 2.119362e+01, 5.826940e-19, -9.644582e+01, -1.280449e-19
578, 4, 4.388962e+02, 7.736052e-40, 2.119362e+01, 5.826940e-19, -9.644582e+01, -1.280449e-19
578, 5, 4.388962e+02, 7.736052e-40, 2.119362e+01, 5.826940e-19, -9.644582e+01, -1.280449e-19
578, 6, 4.388962e+02, 7.736052e-40, 2.119362e+01, 5.826940e-19, -9.644582e+01, -1.280449e-19
578, 7, 4.388962e+02, 7.736052e-40, 2.119362e+01, 5.826940e-19, -9.644582e+01, -1.280449e-19
578, 8, 4.388962e+02, 7.736052e-40, 2.119362e+01, 5.826940e-19, -9.644582e+01, -1.280449e-19
579, 1, 4.390244e+02, 7.981544e-40, 2.093086e+01, 5.919538e-19, -9.586008e+01, -1.292519e-19
579, 2, 4.390244e+02, 7.981544e-40, 2.093086e+01, 5.919538e-19, -9.586008e+01, -1.292519e-19
579, 3, 4.390244e+02, 7.981544e-40, 2.093086e+01, 5.919538e-19, -9.586008e+01, -1.292519e-19
579, 4, 4.390244e+02, 7.981544e-40, 2.093086e+01, 5.919538e-19, -9.586008e+01, -1.292519e-19
579, 5, 4.390244e+02, 7.981544e-40, 2.093086e+01, 5.919538e-19, -9.586008e+01, -1.292519e-19
579, 6, 4.390244e+02, 7.981544e-40, 2.093086e+01, 5.919538e-19, -9.586008e+01, -1.292519e-19
579, 7, 4.390244e+02, 7.981544e-40, 2.093086e+01, 5.919538e-19, -9.586008e+01, -1.292519e-19
579, 8, 4.390244e+02, 7.981544e-40, 2.093086e+01, 5.919538e-19, -9.586008e+01, -1.292519e-19
580, 1, 4.392026e+02, 8.438516e-40, 2.056877e+01, 6.087872e-19, -9.504661e+01, -1.317459e-19
580, 2, 4.392026e+02, 8.438516e-40, 2.056877e+01, 6.087872e-19, -9.504661e+01, -1.317459e-19
580, 3, 4.392026e+02, 8.438516e-40, 2.056877e+01, 6.087872e-19, -9.504661e+01, -1.317459e-19
580, 4, 4.392026e+02, 8.438516e-40, 2.056877e+01, 6.087872e-19, -9.504661e+01, -1.317459e-19
580, 5, 4.392026e+02, 8.438516e-40, 2.056877e+01, 6.087872e-19, -9.504661e+01, -1.317459e-19
580, 6, 4.392026e+02, 8.438516e-40, 2.056877e+01, 6.087872e-19, -9.504661e+01, -1.317459e-19
580, 7, 4.392026e+02, 8.438516e-40, 2.056877e+01, 6.087872e-19, -9.504661e+01, -1.317459e-19
580, 8, 4.392026e+02, 8.438516e-40, 2.056877e+01, 6.087872e-19, -9.504661e+01, -1.317459e-19
581, 1, 4.393587e+02, 8.838821e-40, 2.025127e+01, 6.231703e-19, -9.432694e+01, -1.337899e-19
581, 2, 4.393587e+02, 8.838821e-40, 2.025127e+01, 6.231703e-19, -9.432694e+01, -1.337899e-19
581, 3, 4.393587e+02, 8.838821e-40, 2.025127e+01, 6.231703e-19, -9.432694e+01, -1.337899e-19
581, 4, 4.393587e+02, 8.838821e-40, 2.025127e+01, 6.231703e-19, -9.432694e+01, -1.337899e-19
581, 5, 4.393587e+02, 8.838821e-40, 2.025127e+01, 6.231703e-19, -9.432694e+01, -1.337899e-19
581, 6, 4.393587e+02, 8.838821e-40, 2.025127e+01, 6.231703e-19, -9.432694e+01, -1.337899e-19
581, 7, 4.393587e+02, 8.838821e-40, 2.025127e+01, 6.231703e-19, -9.432694e+01, -1.337899e-19
581, 8, 4.393587e+02, 8.838821e-40, 2.025127e+01, 6.231703e-19, -9.432694e+01, -1.337899e-19
582, 1, 4.394443e+02, 9.036936e-40, 2.007367e+01, 6.301770e-19, -9.392156e+01, -1.346865e-19
582, 2, 4.394443e+02, 9.036936e-40, 2.007367e+01, 6.301770e-19, -9.392156e+01, -1.346865e-19
582, 3, 4.394443e+02, 9.036936e-40, 2.007367e+01, 6.301770e-19, -9.392156e+01, -1.346865e-19
582, 4, 4.394443e+02, 9.036936e-40, 2.007367e+01, 6.301770e-19, -9.392156e+01, -1.346865e-19
582, 5, 4.394443e+02, 9.036936e-40, 2.007367e+01, 6.301770e-19, -9.392156e+01, -1.346865e-19
582, 6, 4.394443e+02, 9.036936e-40, 2.007367e+01, 6.301770e-19, -9.392156e+01, -1.346865e-19
582, 7, 4.394443e+02, 9.036936e-40, 2.007367e+01, 6.301770e-19, -9.392156e+01, -1.346865e-19
582, 8, 4.394443e+02, 9.036936e-40, 2.007367e+01, 6.301770e-19, -9.392156e+01, -1.346865e-19
583, 1, 4.395701e+02, 9.436676e-40, 1.981782e+01, 6.440560e-19, -9.333446e+01, -1.367532e-19
583, 2, 4.395701e+02, 9.436676e-40, 1.981782e+01, 6.440560e-19, -9.333446e+01, -1.367532e-19
583, 3, 4.395701e+02, 9.436676e-40, 1.981782e+01, 6.440560e-19, -9.333446e+01, -1.367532e-19
583, 4, 4.395701e+02, 9.436676e-40, 1.981782e+01, 6.440560e-19, -9.333446e+01, -1.367532e-19
583, 5, 4.395701e+02, 9.436676e-40, 1.981782e+01, 6.440560e-19, -9.333446e+01, -1.367532e-19
583, 6, 4.395701e+02, 9.436676e-40, 1.981782e+01, 6.440560e-19, -9.333446e+01, -1.367532e-19
583, 7, 4.395701e+02, 9.436676e-40, 1.981782e+01, 6.440560e-19, -9.333446e+01, -1.367532e-19
583, 8, 4.395701e+02, 9.436676e-40, 1.981782e+01, 6.440560e-19, -9.333446e+01, -1.367532e-19
584, 1, 4.397433e+02, 9.930017e-40, 1.946524e+01, 6.608070e-19, -9.251870e+01, -1.390288e-19
584, 2, 4.397433e+02, 9.930017e-40, 1.946524e+01, 6.608070e-19, -9.251870e+01, -1.390288e-19
584, 3, 4.397433e+02, 9.930017e-40, 1.946524e+01, 6.608070e-19, -9.251870e+01, -1.390288e-19
584, 4, 4.397433e+02, 9.930017e-40, 1.946524e+01, 6.608070e-19, -9.251870e+01, -1.390288e-19
584, 5, 4.397433e+02, 9.930017e-40, 1.946524e+01, 6.608070e-19, -9.251870e+01, -1.390288e-19
584, 6, 4.397433e+02, 9.930017e-40, 1.946524e+01, 6.608070e-19, -9.251870e+01, -1.390288e-19
584, 7, 4.397433e+02, 9.930017e-40, 1.946524e+01, 6.608070e-19, -9.251870e+01, -1.390288e-19
584, 8, 4.397433e+02, 9.930017e-40, 1.946524e+01, 6.608070e-19, -9.251870e+01, -1.390288e-19
585, 1, 4.398654e+02, 1.029396e-39, 1.921312e+01, 6.729009e-19, -9.193034e+01, -1.406340e-19
585, 2, 4.398654e+02, 1.029396e-39, 1.921312e+01, 6.729009e-19, -9.193034e+01, -1.406340e-19
585, 3, 4.398654e+02, 1.029396e-39, 1.921312e+01, 6.729009e-19, -9.193034e+01, -1.406340e-19
585, 4, 4.398654e+02, 1.029396e-39, 1.921312e+01, 6.729009e-19, -9.193034e+01, -1.406340e-19
585, 5, 4.398654e+02, 1.029396e-39, 1.921312e+01, 6.729009e-19, -9.193034e+01, -1.406340e-19
585, 6, 4.398654e+02, 1.029396e-39, 1.921312e+01, 6.729009e-19, -9.193034e+01, -1.406340e-19
585, 7, 4.398654e+02, 1.029396e-39, 1.921312e+01, 6.729009e-19, -9.193034e+01, -1.406340e-19
585, 8, 4.398654e+02, 1.029396e-39, 1.921312e+01, 6.729009e-19, -9.193034e+01, -1.406340e-19
586, 1, 4.399488e+02, 1.050030e-39, 1.904001e+01, 6.796761e-19, -9.152394e+01, -1.413952e-19
586, 2, 4.399488e+02, 1.050030e-39, 1.904001e+01, 6.796761e-19, -9.152394e+01, -1.413952e-19
586, 3, 4.399488e+02, 1.050030e-39, 1.904001e+01, 6.796761e-19, -9.152394e+01, -1.413952e-19
586, 4, 4.399488e+02, 1.050030e-39, 1.904001e+01, 6.796761e-19, -9.152394e+01, -1.413952e-19
586, 5, 4.399488e+02, 1.050030e-39, 1.904001e+01, 6.796761e-19, -9.152394e+01, -1.413952e-19
586, 6, 4.399488e+02, 1.050030e-39, 1.904001e+01, 6.796761e-19, -9.152394e+01, -1.413952e-19
586, 7, 4.399488e+02, 1.050030e-39, 1.904001e+01, 6.796761e-19, -9.152394e+01, -1.413952e-19
586, 8, 4.399488e+02, 1.050030e-39, 1.904001e+01, 6.796761e-19, -9.152394e+01, -1.413952e-19
587, 1, 4.400725e+02, 1.097318e-39, 1.879074e+01, 6.949095e-19, -9.093562e+01, -1.435946e-19
587, 2, 4.400725e+02, 1.097318e-39, 1.879074e+01, 6.949095e-19, -9.093562e+01, -1.435946e-19
587, 3, 4.400725e+02, 1.097318e-39, 1.879074e+01, 6.949095e-19, -9.093562e+01, -1.435946e-19
587, 4, 4.400725e+02, 1.097318e-39, 1.879074e+01, 6.949095e-19, -9.093562e+01, -1.435946e-19
587, 5, 4.400725e+02, 1.097318e-39, 1.879074e+01, 6.949095e-19, -9.093562e+01, -1.435946e-19
587, 6, 4.400725e+02, 1.097318e-39, 1.879074e+01, 6.949095e-19, -9.093562e+01, -1.435946e-19
587, 7, 4.400725e+02, 1.097318e-39, 1.879074e+01, 6.949095e-19, -9.093562e+01, -1.435946e-19
587, 8, 4.400725e+02, 1.097318e-39, 1.879074e+01, 6.949095e-19, -9.093562e+01, -1.435946e-19
588, 1, 4.402390e+02, 1.153623e-39, 1.844712e+01, 7.126499e-19, -9.011737e+01, -1.458802e-19
588, 2, 4.402390e+02, 1.153623e-39, 1.844712e+01, 7.126499e-19, -9.011737e+01, -1.458802e-19
588, 3, 4.402390e+02, 1.153623e-39, 1.844712e+01, 7.126499e-19, -9.011737e+01, -1.458802e-19
588, 4, 4.402390e+02, 1.153623e-39, 1.844712e+01, 7.126499e-19, -9.011737e+01, -1.458802e-19
588, 5, 4.402390e+02, 1.153623e-39, 1.844712e+01, 7.126499e-19, -9.011737e+01, -1.458802e-19
588, 6, 4.402390e+02, 1.153623e-39, 1.844712e+01, 7.126499e-19, -9.011737e+01, -1.458802e-19
588, 7, 4.402390e+02, 1.153623e-39, 1.844712e+01, 7.126499e-19, -9.011737e+01, -1.458802e-19
588, 8, 4.402390e+02, 1.153623e-39, 1.844712e+01, 7.126499e-19, -9.011737e+01, -1.458802e-19
589, 1, 4.403611e+02, 1.191411e-39, 1.820167e+01, 7.243281e-19, -8.952826e+01, -1.472606e-19
589, 2, 4.403611e+02, 1.191411e-39, 1.820167e+01, 7.243281e-19, -8.952826e+01, -1.472606e-19
589, 3, 4.403611e+02, 1.191411e-39, 1.820167e+01, 7.243281e-19, -8.952826e+01, -1.472606e-19
589, 4, 4.403611e+02, 1.191411e-39, 1.820167e+01, 7.243281e-19, -8.952826e+01, -1.472606e-19
589, 5, 4.403611e+02, 1.191411e-39, 1.820167e+01, 7.243281e-19, -8.952826e+01, -1.472606e-19
589, 6, 4.403611e+02, 1.191411e-39, 1.820167e+01, 7.243281e-19, -8.952826e+01, -1.472606e-19
589, 7, 4.403611e+02, 1.191411e-39, 1.820167e+01, 7.243281e-19, -8.952826e+01, -1.472606e-19
589, 8, 4.403611e+02, 1.191411e-39, 1.820167e+01, 7.243281e-19, -8.952826e+01, -1.472606e-19
590, 1, 4.404444e+02, 1.220417e-39, 1.803316e+01, 7.331615e-19, -8.912129e+01, -1.483508e-19
590, 2, 4.404444e+02, 1.220417e-39, 1.803316e+01, 7.331615e-19, -8.912129e+01, -1.483508e-19
590, 3, 4.404444e+02, 1.220417e-39, 1.803316e+01, 7.331615e-19, -8.912129e+01, -1.483508e-19
590, 4, 4.404444e+02, 1.220417e-39, 1.803316e+01, 7.331615e-19, -8.912129e+01, -1.483508e-19
590, 5, 4.404444e+02, 1.220417e-39, 1.803316e+01, 7.331615e-19, -8.912129e+01, -1.483508e-19
590, 6, 4.404444e+02, 1.220417e-39, 1.803316e+01, 7.331615e-19, -8.912129e+01, -1.483508e-19
590, 7, 4.404444e+02, 1.220417e-39, 1.803316e+01, 7.331615e-19, -8.912129e+01, -1.483508e-19
590, 8, 4.404444e+02, 1.220417e-39, 1.803316e+01, 7.331615e-19, -8.912129e+01, -1.483508e-19
591, 1, 4.405617e+02, 1.263719e-39, 1.779029e+01, 7.461542e-19, -8.853091e+01, -1.499397e-19
591, 2, 4.405617e+02, 1.263719e-39, 1.779029e+01, 7.461542e-19, -8.853091e+01, -1.499397e-19
591, 3, 4.405617e+02, 1.263719e-39, 1.779029e+01, 7.461542e-19, -8.853091e+01, -1.499397e-19
591, 4, 4.405617e+02, 1.263719e-39, 1.779029e+01, 7.461542e-19, -8.853091e+01, -1.499397e-19
591, 5, 4.405617e+02, 1.263719e-39, 1.779029e+01, 7.461542e-19, -8.853091e+01, -1.499397e-19
591, 6, 4.405617e+02, 1.263719e-39, 1.779029e+01, 7.461542e-19, -8.853091e+01, -1.499397e-19
591, 7, 4.405617e+02, 1.263719e-39, 1.779029e+01, 7.461542e-19, -8.853091e+01, -1.499397e-19
591, 8, 4.405617e+02, 1.263719e-39, 1.779029e+01, 7.461542e-19, -8.853091e+01, -1.499397e-19
592, 1, 4.407258e+02, 1.324115e-39, 1.745584e+01, 7.639186e-19, -8.771110e+01, -1.520314e-19
592, 2, 4.407258e+02, 1.324115e-39, 1.745584e+01, 7.639186e-19, -8.771110e+01, -1.520314e-19
592, 3, 4.407258e+02, 1.324115e-39, 1.745584e+01, 7.639186e-19, -8.771110e+01, -1.520314e-19
592, 4, 4.407258e+02, 1.324115e-39, 1.745584e+01, 7.639186e-19, -8.771110e+01, -1.520314e-19
592, 5, 4.407258e+02, 1.324115e-39, 1.745584e+01, 7.639186e-19, -8.771110e+01, -1.520314e-19
592, 6, 4.407258e+02, 1.324115e-39, 1.745584e+01, 7.639186e-19, -8.771110e+01, -1.520314e-19
592, 7, 4.407258e+02, 1.324115e-39, 1.745584e+01, 7.639186e-19, -8.771110e+01, -1.520314e-19
592, 8, 4.407258e+02, 1.324115e-39, 1.745584e+01, 7.639186e-19, -8.771110e+01, -1.520314e-19
593, 1, 4.408436e+02, 1.370690e-39, 1.721690e+01, 7.773417e-19, -8.712038e+01, -1.536198e-19
593, 2, 4.408436e+02, 1.370690e-39, 1.721690e+01, 7.773417e-19, -8.712038e+01, -1.536198e-19
593, 3, 4.408436e+02, 1.370690e-39, 1.721690e+01, 7.773417e-19, -8.712038e+01, -1.536198e-19
593, 4, 4.408436e+02, 1.370690e-39, 1.721690e+01, 7.773417e-19, -8.712038e+01, -1.536198e-19
593, 5, 4.408436e+02, 1.370690e-39, 1.721690e+01, 7.773417e-19, -8.712038e+01, -1.536198e-19
593, 6, 4.408436e+02, 1.370690e-39, 1.721690e+01, 7.773417e-19, -8.712038e+01, -1.536198e-19
593, 7, 4.408436e+02, 1.370690e-39, 1.721690e+01, 7.773417e-19, -8.712038e+01, -1.536198e-19
593, 8, 4.408436e+02, 1.370690e-39, 1.721690e+01, 7.773417e-19, -8.712038e+01, -1.536198e-19
594, 1, 4.409246e+02, 1.402862e-39, 1.705291e+01, 7.864836e-19, -8.671244e+01, -1.546702e-19
594, 2, 4.409246e+02, 1.402862e-39, 1.705291e+01, 7.864836e-19, -8.671244e+01, -1.546702e-19
594, 3, 4.409246e+02, 1.402862e-39, 1.705291e+01, 7.864836e-19, -8.671244e+01, -1.546702e-19
594, 4, 4.409246e+02, 1.402862e-39, 1.705291e+01, 7.864836e-19, -8.671244e+01, -1.546702e-19
594, 5, 4.409246e+02, 1.402862e-39, 1.705291e+01, 7.864836e-19, -8.671244e+01, -1.546702e-19
594, 6, 4.409246e+02, 1.402862e-39, 1.705291e+01, 7.864836e-19, -8.671244e+01, -1.546702e-19
594, 7, 4.409246e+02, 1.402862e-39, 1.705291e+01, 7.864836e-19, -8.671244e+01, -1.546702e-19
594, 8, 4.409246e+02, 1.402862e-39, 1.705291e+01, 7.864836e-19, -8.671244e+01, -1.546702e-19
595, 1, 4.410665e+02, 1.463447e-39, 1.676305e+01, 8.034160e-19, -8.598616e+01, -1.566264e-19
595, 2, 4.410665e+02, 1.463447e-39, 1.676305e+01, 8.034160e-19, -8.598616e+01, -1.566264e-19
595, 3, 4.410665e+02, 1.463447e-39, 1.676305e+01, 8.034160e-19, -8.598616e+01, -1.566264e-19
595, 4, 4.410665e+02, 1.463447e-39, 1.676305e+01, 8.034160e-19, -8.598616e+01, -1.566264e-19
595, 5, 4.410665e+02, 1.463447e-39, 1.676305e+01, 8.034160e-19, -8.598616e+01, -1.566264e-19
595, 6, 4.410665e+02, 1.463447e-39, 1.676305e+01, 8.034160e-19, -8.598616e+01, -1.566264e-19
595, 7, 4.410665e+02, 1.463447e-39, 1.676305e+01, 8.034160e-19, -8.598616e+01, -1.566264e-19
595, 8, 4.410665e+02, 1.463447e-39, 1.676305e+01, 8.034160e-19, -8.598616e+01, -1.566264e-19
596, 1, 4.412254e+02, 1.535355e-39, 1.643819e+01, 8.230660e-19, -8.516425e+01, -1.588662e-19
596, 2, 4.412254e+02, 1.535355e-39, 1.643819e+01, 8.230660e-19, -8.516425e+01, -1.588662e-19
596, 3, 4.412254e+02, 1.535355e-39, 1.643819e+01, 8.230660e-19, -8.516425e+01, -1.588662e-19
596, 4, 4.412254e+02, 1.535355e-39, 1.643819e+01, 8.230660e-19, -8.516425e+01, -1.588662e-19
596, 5, 4.412254e+02, 1.535355e-39, 1.643819e+01, 8.230660e-19, -8.516425e+01, -1.588662e-19
596, 6, 4.412254e+02, 1.535355e-39, 1.643819e+01, 8.230660e-19, -8.516425e+01, -1.588662e-19
596, 7, 4.412254e+02, 1.535355e-39, 1.643819e+01, 8.230660e-19, -8.516425e+01, -1.588662e-19
596, 8, 4.412254e+02, 1.535355e-39, 1.643819e+01, 8.230660e-19, -8.516425e+01, -1.588662e-19
597, 1, 4.413408e+02, 1.581592e-39, 1.620623e+01, 8.354767e-19, -8.457227e+01, -1.600989e-19
597, 2, 4.413408e+02, 1.581592e-39, 1.620623e+01, 8.354767e-19, -8.457227e+01, -1.600989e-19
597, 3, 4.413408e+02, 1.581592e-39, 1.620623e+01, 8.354767e-19, -8.457227e+01, -1.600989e-19
597, 4, 4.413408e+02, 1.581592e-39, 1.620623e+01, 8.354767e-19, -8.457227e+01, -1.600989e-19
597, 5, 4.413408e+02, 1.581592e-39, 1.620623e+01, 8.354767e-19, -8.457227e+01, -1.600989e-19
597, 6, 4.413408e+02, 1.581592e-39, 1.620623e+01, 8.354767e-19, -8.457227e+01, -1.600989e-19
597, 7, 4.413408e+02, 1.581592e-39, 1.620623e+01, 8.354767e-19, -8.457227e+01, -1.600989e-19
597, 8, 4.413408e+02, 1.581592e-39, 1.620623e+01, 8.354767e-19, -8.457227e+01, -1.600989e-19
598, 1, 4.414171e+02, 1.623328e-39, 1.604693e+01, 8.465014e-19, -8.416288e+01, -1.613984e-19
598, 2, 4.414171e+02, 1.623328e-39, 1.604693e+01, 8.465014e-19, -8.416288e+01, -1.613984e-19
598, 3, 4.414171e+02, 1.623328e-39, 1.604693e+01, 8.465014e-19, -8.416288e+01, -1.613984e-19
598, 4, 4.414171e+02, 1.623328e-39, 1.604693e+01, 8.465014e-19, -8.416288e+01, -1.613984e-19
598, 5, 4.414171e+02, 1.623328e-39, 1.604693e+01, 8.465014e-19, -8.416288e+01, -1.613984e-19
598, 6, 4.414171e+02, 1.623328e-39, 1.604693e+01, 8.465014e-19, -8.416288e+01, -1.613984e-19
598, 7, 4.414171e+02, 1.623328e-39, 1.604693e+01, 8.465014e-19, -8.416288e+01, -1.613984e-19
598, 8, 4.414171e+02, 1.623328e-39, 1.604693e+01, 8.465014e-19, -8.416288e+01, -1.613984e-19
599, 1, 4.415298e+02, 1.677530e-39, 1.581765e+01, 8.606273e-19, -8.357012e+01, -1.628944e-19
599, 2, 4.415298e+02, 1.677530e-39, 1.581765e+01, 8.606273e-19, -8.357012e+01, -1.628944e-19
599, 3, 4.415298e+02, 1.677530e-39, 1.581765e+01, 8.606273e-19, -8.357012e+01, -1.628944e-19
599, 4, 4.415298e+02, 1.677530e-39, 1.581765e+01, 8.606273e-19, -8.357012e+01, -1.628944e-19
599, 5, 4.415298e+02, 1.677530e-39, 1.581765e+01, 8.606273e-19, -8.357012e+01, -1.628944e-19
599, 6, 4.415298e+02, 1.677530e-39, 1.581765e+01, 8.606273e-19, -8.357012e+01, -1.628944e-19
599, 7, 4.415298e+02, 1.677530e-39, 1.581765e+01, 8.606273e-19, -8.357012e+01, -1.628944e-19
599, 8, 4.415298e+02, 1.677530e-39, 1.581765e+01, 8.606273e-19, -8.357012e+01, -1.628944e-19
600, 1, 4.416841e+02, 1.748783e-39, 1.550192e+01, 8.788684e-19, -8.274631e+01, -1.646496e-19
600, 2, 4.416841e+02, 1.748783e-39, 1.550192e+01, 8.788684e-19, -8.274631e+01, -1.646496e-19
600, 3, 4.416841e+02, 1.748783e-39, 1.550192e+01, 8.788684e-19, -8.274631e+01, -1.646496e-19
600, 4, 4.416841e+02, 1.748783e-39, 1.550192e+01, 8.788684e-19, -8.274631e+01, -1.646496e-19
600, 5, 4.416841e+02, 1.748783e-39, 1.550192e+01, 8.788684e-19, -8.274631e+01, -1.646496e-19
600, 6, 4.416841e+02, 1.748783e-39, 1.550192e+01, 8.788684e-19, -8.274631e+01, -1.646496e-19
600, 7, 4.416841e+02, 1.748783e-39, 1.550192e+01, 8.788684e-19, -8.274631e+01, -1.646496e-19
600, 8, 4.416841e+02, 1.748783e-39, 1.550192e+01, 8.788684e-19, -8.274631e+01, -1.646496e-19
601, 1, 4.417952e+02, 1.809481e-39, 1.527650e+01, 8.941028e-19, -8.215282e+01, -1.662604e-19
601, 2, 4.417952e+02, 1.809481e-39, 1.527650e+01, 8.941028e-19, -8.215282e+01, -1.662604e-19
601, 3, 4.417952e+02, 1.809481e-39, 1.527650e+01, 8.941028e-19, -8.215282e+01, -1.662604e-19
601, 4, 4.417952e+02, 1.809481e-39, 1.527650e+01, 8.941028e-19, -8.215282e+01, -1.662604e-19
601, 5, 4.417952e+02, 1.809481e-39, 1.527650e+01, 8.941028e-19, -8.215282e+01, -1.662604e-19
601, 6, 4.417952e+02, 1.809481e-39, 1.527650e+01, 8.941028e-19, -8.215282e+01, -1.662604e-19
601, 7, 4.417952e+02, 1.809481e-39, 1.527650e+01, 8.941028e-19, -8.215282e+01, -1.662604e-19
601, 8, 4.417952e+02, 1.809481e-39, 1.527650e+01, 8.941028e-19, -8.215282e+01, -1.662604e-19
602, 1, 4.418713e+02, 1.848378e-39, 1.512183e+01, 9.037397e-19, -8.174291e+01, -1.671851e-19
602, 2, 4.418713e+02, 1.848378e-39, 1.512183e+01, 9.037397e-19, -8.174291e+01, -1.671851e-19
602, 3, 4.418713e+02, 1.848378e-39, 1.512183e+01, 9.037397e-19, -8.174291e+01, -1.671851e-19
602, 4, 4.418713e+02, 1.848378e-39, 1.512183e+01, 9.037397e-19, -8.174291e+01, -1.671851e-19
602, 5, 4.418713e+02, 1.848378e-39, 1.512183e+01, 9.037397e-19, -8.174291e+01, -1.671851e-19
602, 6, 4.418713e+02, 1.848378e-39, 1.512183e+01, 9.037397e-19, -8.174291e+01, -1.671851e-19
602, 7, 4.418713e+02, 1.848378e-39, 1.512183e+01, 9.037397e-19, -8.174291e+01, -1.671851e-19
602, 8, 4.418713e+02, 1.848378e-39, 1.512183e+01, 9.037397e-19, -8.174291e+01, -1.671851e-19
603, 1, 4.419819e+02, 1.909546e-39, 1.489918e+01, 9.186865e-19, -8.114905e+01, -1.686733e-19
603, 2, 4.419819e+02, 1.909546e-39, 1.489918e+01, 9.186865e-19, -8.114905e+01, -1.686733e-19
603, 3, 4.419819e+02, 1.909546e-39, 1.489918e+01, 9.186865e-19, -8.114905e+01, -1.686733e-19
603, 4, 4.419819e+02, 1.909546e-39, 1.489918e+01, 9.186865e-19, -8.114905e+01, -1.686733e-19
603, 5, 4.419819e+02, 1.909546e-39, 1.489918e+01, 9.186865e-19, -8.114905e+01, -1.686733e-19
603, 6, 4.419819e+02, 1.909546e-39, 1.489918e+01, 9.186865e-19, -8.114905e+01, -1.686733e-19
603, 7, 4.419819e+02, 1.909546e-39, 1.489918e+01, 9.186865e-19, -8.114905e+01, -1.686733e-19
603, 8, 4.419819e+02, 1.909546e-39, 1.489918e+01, 9.186865e-19, -8.114905e+01, -1.686733e-19
604, 1, 4.421337e+02, 1.995730e-39, 1.459267e+01, 9.393505e-19, -8.032379e+01, -1.706547e-19
604, 2, 4.421337e+02, 1.995730e-39, 1.459267e+01, 9.393505e-19, -8.032379e+01, -1.706547e-19
604, 3, 4.421337e+02, 1.995730e-39, 1.459267e+01, 9.393505e-19, -8.032379e+01, -1.706547e-19
604, 4, 4.421337e+02, 1.995730e-39, 1.459267e+01, 9.393505e-19, -8.032379e+01, -1.706547e-19
604, 5, 4.421337e+02, 1.995730e-39, 1.459267e+01, 9.393505e-19, -8.032379e+01, -1.706547e-19
604, 6, 4.421337e+02, 1.995730e-39, 1.459267e+01, 9.393505e-19, -8.032379e+01, -1.706547e-19
604, 7, 4.421337e+02, 1.995730e-39, 1.459267e+01, 9.393505e-19, -8.032379e+01, -1.706547e-19
604, 8, 4.421337e+02, 1.995730e-39, 1.459267e+01, 9.393505e-19, -8.032379e+01, -1.706547e-19
605, 1, 4.427485e+02, 7.931077e-39, 1.334107e+01, 1.873892e-18, -7.685530e+01, -3.252830e-19
605, 2, 4.427485e+02, 7.931077e-39, 1.334107e+01, 1.873892e-18, -7.685530e+01, -3.252830e-19
605, 3, 4.427485e+02, 7.931077e-39, 1.334107e+01, 1.873892e-18, -7.685530e+01, -3.252830e-19
605, 4, 4.427485e+02, 7.931077e-39, 1.334107e+01, 1.873892e-18, -7.685530e+01, -3.252830e-19
605, 5, 4.427485e+02, 7.931077e-39, 1.334107e+01, 1.873892e-18, -7.685530e+01, -3.252830e-19
605, 6, 4.427485e+02, 7.931077e-39, 1.334107e+01, 1.873892e-18, -7.685530e+01, -3.252830e-19
605, 7, 4.427485e+02, 7.931077e-39, 1.334107e+01, 1.873892e-18, -7.685530e+01, -3.252830e-19
605, 8, 4.427485e+02, 7.931077e-39, 1.334107e+01, 1.873892e-18, -7.685530e+01, -3.252830e-19
606, 1, 4.428684e+02, 3.352149e-39, 1.309784e+01, 1.218426e-18, -7.616180e+01, -2.095374e-19
606, 2, 4.428684e+02, 3.352149e-39, 1.309784e+01, 1.218426e-18, -7.616180e+01, -2.095374e-19
606, 3, 4.428684e+02, 3.352149e-39, 1.309784e+01, 1.218426e-18, -7.616180e+01, -2.095374e-19
606, 4, 4.428684e+02, 3.352149e-39, 1.309784e+01, 1.218426e-18, -7.616180e+01, -2.095374e-19
606, 5, 4.428684e+02, 3.352149e-39, 1.309784e+01, 1.218426e-18, -7.616180e+01, -2.095374e-19
606, 6, 4.428684e+02, 3.352149e-39, 1.309784e+01, 1.218426e-18, -7.616180e+01, -2.095374e-19
606, 7, 4.428684e+02, 3.352149e-39, 1.309784e+01, 1.218426e-18, -7.616180e+01, -2.095374e-19
606, 8, 4.428684e+02, 3.352149e-39, 1.309784e+01, 1.218426e-18, -7.616180e+01, -2.095374e-19
607, 1, 4.429226e+02, 3.381476e-39, 1.298756e+01, 1.223819e-18, -7.584514e+01, -2.095642e-19
607, 2, 4.429226e+02, 3.381476e-39, 1.298756e+01, 1.223819e-18, -7.584514e+01, -2.095642e-19
607, 3, 4.429226e+02, 3.381476e-39, 1.298756e+01, 1.223819e-18, -7.584514e+01, -2.095642e-19
607, 4, 4.429226e+02, 3.381476e-39, 1.298756e+01, 1.223819e-18, -7.584514e+01, -2.095642e-19
607, 5, 4.429226e+02, 3.381476e-39, 1.298756e+01, 1.223819e-18, -7.584514e+01, -2.095642e-19
607, 6, 4.429226e+02, 3.381476e-39, 1.298756e+01, 1.223819e-18, -7.584514e+01, -2.095642e-19
607, 7, 4.429226e+02, 3.381476e-39, 1.298756e+01, 1.223819e-18, -7.584514e+01, -2.095642e-19
607, 8, 4.429226e+02, 3.381476e-39, 1.298756e+01, 1.223819e-18, -7.584514e+01, -2.095642e-19
608, 1, 4.355805e+02, 7.818952e-41, 2.801395e+01, -1.845476e-19, -1.104642e+02, 4.680168e-20
608, 2, 4.355805e+02, 7.818952e-41, 2.801395e+01, -1.845476e-19, -1.104642e+02, 4.680168e-20
608, 3, 4.355805e+02, 7.818952e-41, 2.801395e+01, -1.845476e-19, -1.104642e+02, 4.680168e-20
608, 4, 4.355805e+02, 7.818952e-41, 2.801395e+01, -1.845476e-19, -1.104642e+02, 4.680168e-20
608, 5, 4.355805e+02, 7.818952e-41, 2.801395e+01, -1.845476e-19, -1.104642e+02, 4.680168e-20
608, 6, 4.355805e+02, 7.818952e-41, 2.801395e+01, -1.845476e-19, -1.104642e+02, 4.680168e-20
608, 7, 4.355805e+02, 7.818952e-41, 2.801395e+01, -1.845476e-19, -1.104642e+02, 4.680168e-20
608, 8, 4.355805e+02, 7.818952e-41, 2.801395e+01, -1.845476e-19, -1.104642e+02, 4.680168e-20
609, 1, 4.356645e+02, 7.717985e-41, 2.784027e+01, -1.833699e-19, -1.101318e+02, 4.635416e-20
609, 2, 4.356645e+02, 7.717985e-41, 2.784027e+01, -1.833699e-19, -1.101318e+02, 4.635416e-20
609, 3, 4.356645e+02, 7.717985e-41, 2.784027e+01, -1.833699e-19, -1.101318e+02, 4.635416e-20
609, 4, 4.356645e+02, 7.717985e-41, 2.784027e+01, -1.833699e-19, -1.101318e+02, 4.635416e-20
609, 5, 4.356645e+02, 7.717985e-41, 2.784027e+01, -1.833699e-19, -1.101318e+02, 4.635416e-20
609, 6, 4.356645e+02, 7.717985e-41, 2.784027e+01, -1.833699e-19, -1.101318e+02, 4.635416e-20
609, 7, 4.356645e+02, 7.717985e-41, 2.784027e+01, -1.833699e-19, -1.101318e+02, 4.635416e-20
609, 8, 4.356645e+02, 7.717985e-41, 2.784027e+01, -1.833699e-19, -1.101318e+02, 4.635416e-20
610, 1, 4.358119e+02, 7.813419e-41, 2.753818e+01, -1.845313e-19, -1.095512e+02, 4.638613e-20
610, 2, 4.358119e+02, 7.813419e-41, 2.753818e+01, -1.845313e-19, -1.095512e+02, 4.638613e-20
610, 3, 4.358119e+02, 7.813419e-41, 2.753818e+01, -1.845313e-19, -1.095512e+02, 4.638613e-20
610, 4, 4.358119e+02, 7.813419e-41, 2.753818e+01, -1.845313e-19, -1.095512e+02, 4.638613e-20
610, 5, 4.358119e+02, 7.813419e-41, 2.753818e+01, -1.845313e-19, -1.095512e+02, 4.638613e-20
610, 6, 4.358119e+02, 7.813419e-41, 2.753818e+01, -1.845313e-19, -1.095512e+02, 4.638613e-20
610, 7, 4.358119e+02, 7.813419e-41, 2.753818e+01, -1.845313e-19, -1.095512e+02, 4.638613e-20
610, 8, 4.358119e+02, 7.813419e-41, 2.753818e+01, -1.845313e-19, -1.095512e+02, 4.638613e-20
611, 1, 4.365568e+02, 5.435901e-41, 2.599951e+01, -1.540480e-19, -1.065376e+02, 3.759398e-20
611, 2, 4.365568e+02, 5.435901e-41, 2.599951e+01, -1.540480e-19, -1.065376e+02, 3.759398e-20
611, 3, 4.365568e+02, 5.435901e-41, 2.599951e+01, -1.540480e-19, -1.065376e+02, 3.759398e-20
611, 4, 4.365568e+02, 5.435901e-41, 2.599951e+01, -1.540480e-19, -1.065376e+02, 3.759398e-20
611, 5, 4.365568e+02, 5.435901e-41, 2.599951e+01, -1.540480e-19, -1.065376e+02, 3.759398e-20
611, 6, 4.365568e+02, 5.435901e-41, 2.599951e+01, -1.540480e-19, -1.065376e+02, 3.759398e-20
611, 7, 4.365568e+02, 5.435901e-41, 2.599951e+01, -1.540480e-19, -1.065376e+02, 3.759398e-20
611, 8, 4.365568e+02, 5.435901e-41, 2.599951e+01, -1.540480e-19, -1.065376e+02, 3.759398e-20
612, 1, 4.366989e+02, 5.532262e-41, 2.570935e+01, -1.554327e-19, -1.059587e+02, 3.771350e-20
612, 2, 4.366989e+02, 5.532262e-41, 2.570935e+01, -1.554327e-19, -1.059587e+02, 3.771350e-20
612, 3, 4.366989e+02, 5.532262e-41, 2.570935e+01, -1.554327e-19, -1.059587e+02, 3.771350e-20
612, 4, 4.366989e+02, 5.532262e-41, 2.570935e+01, -1.554327e-19, -1.059587e+02, 3.771350e-20
612, 5, 4.366989e+02, 5.532262e-41, 2.570935e+01, -1.554327e-19, -1.059587e+02, 3.771350e-20
612, 6, 4.366989e+02, 5.532262e-41, 2.570935e+01, -1.554327e-19, -1.059587e+02, 3.771350e-20
612, 7, 4.366989e+02, 5.532262e-41, 2.570935e+01, -1.554327e-19, -1.059587e+02, 3.771350e-20
612, 8, 4.366989e+02, 5.532262e-41, 2.570935e+01, -1.554327e-19, -1.059587e+02, 3.771350e-20
613, 1, 4.368929e+02, 5.777322e-41, 2.530907e+01, -1.588733e-19, -1.051540e+02, 3.823855e-20
613, 2, 4.368929e+02, 5.777322e-41, 2.530907e+01, -1.588733e-19, -1.051540e+02, 3.823855e-20
613, 3, 4.368929e+02, 5.777322e-41, 2.530907e+01, -1.588733e-19, -1.051540e+02, 3.823855e-20
613, 4, 4.368929e+02, 5.777322e-41, 2.530907e+01, -1.588733e-19, -1.051540e+02, 3.823855e-20
613, 5, 4.368929e+02, 5.777322e-41, 2.530907e+01, -1.588733e-19, -1.051540e+02, 3.823855e-20
613, 6, 4.368929e+02, 5.777322e-41, 2.530907e+01, -1.588733e-19, -1.051540e+02, 3.823855e-20
613, 7, 4.368929e+02, 5.777322e-41, 2.530907e+01, -1.588733e-19, -1.051540e+02, 3.823855e-20
613, 8, 4.368929e+02, 5.777322e-41, 2.530907e+01, -1.588733e-19, -1.051540e+02, 3.823855e-20
614, 1, 4.370315e+02, 5.971768e-41, 2.502255e+01, -1.615503e-19, -1.045736e+02, 3.865603e-20
614, 2, 4.370315e+02, 5.971768e-41, 2.502255e+01, -1.615503e-19, -1.045736e+02, 3.865603e-20
614, 3, 4.370315e+02, 5.971768e-41, 2.502255e+01, -1.615503e-19, -1.045736e+02, 3.865603e-20
614, 4, 4.370315e+02, 5.971768e-41, 2.502255e+01, -1.615503e-19, -1.045736e+02, 3.865603e-20
614, 5, 4.370315e+02, 5.971768e-41, 2.502255e+01, -1.615503e-19, -1.045736e+02, 3.865603e-20
614, 6, 4.370315e+02, 5.971768e-41, 2.502255e+01, -1.615503e-19, -1.045736e+02, 3.865603e-20
614, 7, 4.370315e+02, 5.971768e-41, 2.502255e+01, -1.615503e-19, -1.045736e+02, 3.865603e-20
614, 8, 4.370315e+02, 5.971768e-41, 2.502255e+01, -1.615503e-19, -1.045736e+02, 3.865603e-20
615, 1, 4.371273e+02, 6.011635e-41, 2.482579e+01, -1.621064e-19, -1.041731e+02, 3.863205e-20
615, 2, 4.371273e+02, 6.011635e-41, 2.482579e+01, -1.621064e-19, -1.041731e+02, 3.863205e-20
615, 3, 4.371273e+02, 6.011635e-41, 2.482579e+01, -1.621064e-19, -1.041731e+02, 3.863205e-20
615, 4, 4.371273e+02, 6.011635e-41, 2.482579e+01, -1.621064e-19, -1.041731e+02, 3.863205e-20
615, 5, 4.371273e+02, 6.011635e-41, 2.482579e+01, -1.621064e-19, -1.041731e+02, 3.863205e-20
615, 6, 4.371273e+02, 6.011635e-41, 2.482579e+01, -1.621064e-19, -1.041731e+02, 3.863205e-20
615, 7, 4.371273e+02, 6.011635e-41, 2.482579e+01, -1.621064e-19, -1.041731e+02, 3.863205e-20
615, 8, 4.371273e+02, 6.011635e-41, 2.482579e+01, -1.621064e-19, -1.041731e+02, 3.863205e-20
616, 1, 4.372675e+02, 6.160485e-41, 2.454211e+01, -1.641274e-19, -1.035928e+02, 3.888333e-20
616, 2, 4.372675e+02, 6.160485e-41, 2.454211e+01, -1.641274e-19, -1.035928e+02, 3.888333e-20
616, 3, 4.372675e+02, 6.160485e-41, 2.454211e+01, -1.641274e-19, -1.035928e+02, 3.888333e-20
616, 4, 4.372675e+02, 6.160485e-41, 2.454211e+01, -1.641274e-19, -1.035928e+02, 3.888333e-20
616, 5, 4.372675e+02, 6.160485e-41, 2.454211e+01, -1.641274e-19, -1.035928e+02, 3.888333e-20
616, 6, 4.372675e+02, 6.160485e-41, 2.454211e+01, -1.641274e-19, -1.035928e+02, 3.888333e-20
616, 7, 4.372675e+02, 6.160485e-41, 2.454211e+01, -1.641274e-19, -1.035928e+02, 3.888333e-20
616, 8, 4.372675e+02, 6.160485e-41, 2.454211e+01, -1.641274e-19, -1.035928e+02, 3.888333e-20
617, 1, 4.374571e+02, 6.368840e-41, 2.415074e+01, -1.669160e-19, -1.027858e+02, 3.921890e-20
617, 2, 4.374571e+02, 6.368840e-41, 2.415074e+01, -1.669160e-19, -1.027858e+02, 3.921890e-20
617, 3, 4.374571e+02, 6.368840e-41, 2.415074e+01, -1.669160e-19, -1.027858e+02, 3.921890e-20
617, 4, 4.374571e+02, 6.368840e-41, 2.415074e+01, -1.669160e-19, -1.027858e+02, 3.921890e-20
617, 5, 4.374571e+02, 6.368840e-41, 2.415074e+01, -1.669160e-19, -1.027858e+02, 3.921890e-20
617, 6, 4.374571e+02, 6.368840e-41, 2.415074e+01, -1.669160e-19, -1.027858e+02, 3.921890e-20
617, 7, 4.374571e+02, 6.368840e-41, 2.415074e+01, -1.669160e-19, -1.027858e+02, 3.921890e-20
617, 8, 4.374571e+02, 6.368840e-41, 2.415074e+01, -1.669160e-19, -1.027858e+02, 3.921890e-20
618, 1, 4.375936e+02, 6.513885e-41, 2.387072e+01, -1.688323e-19, -1.022041e+02, 3.943237e-20
618, 2, 4.375936e+02, 6.513885e-41, 2.387072e+01, -1.688323e-19, -1.022041e+02, 3.943237e-20
618, 3, 4.375936e+02, 6.513885e-41, 2.387072e+01, -1.688323e-19, -1.022041e+02, 3.943237e-20
618, 4, 4.375936e+02, 6.513885e-41, 2.387072e+01, -1.688323e-19, -1.022041e+02, 3.943237e-20
618, 5, 4.375936e+02, 6.513885e-41, 2.387072e+01, -1.688323e-19, -1.022041e+02, 3.943237e-20
618, 6, 4.375936e+02, 6.513885e-41, 2.387072e+01, -1.688323e-19, -1.022041e+02, 3.943237e-20
618, 7, 4.375936e+02, 6.513885e-41, 2.387072e+01, -1.688323e-19, -1.022041e+02, 3.943237e-20
618, 8, 4.375936e+02, 6.513885e-41, 2.387072e+01, -1.688323e-19, -1.022041e+02, 3.943237e-20
619, 1, 4.376872e+02, 6.587492e-41, 2.367839e+01, -1.698017e-19, -1.018024e+02, 3.949445e-20
619, 2, 4.376872e+02, 6.587492e-41, 2.367839e+01, -1.698017e-19, -1.018024e+02, 3.949445e-20
619, 3, 4.376872e+02, 6.587492e-41, 2.367839e+01, -1.698017e-19, -1.018024e+02, 3.949445e-20
619, 4, 4.376872e+02, 6.587492e-41, 2.367839e+01, -1.698017e-19, -1.018024e+02, 3.949445e-20
619, 5, 4.376872e+02, 6.587492e-41, 2.367839e+01, -1.698017e-19, -1.018024e+02, 3.949445e-20
619, 6, 4.376872e+02, 6.587492e-41, 2.367839e+01, -1.698017e-19, -1.018024e+02, 3.949445e-20
619, 7, 4.376872e+02, 6.587492e-41, 2.367839e+01, -1.698017e-19, -1.018024e+02, 3.949445e-20
619, 8, 4.376872e+02, 6.587492e-41, 2.367839e+01, -1.698017e-19, -1.018024e+02, 3.949445e-20
620, 1, 4.378502e+02, 6.688296e-41, 2.333834e+01, -1.711278e-19, -1.010876e+02, 3.950870e-20
620, 2, 4.378502e+02, 6.688296e-41, 2.333834e+01, -1.711278e-19, -1.010876e+02, 3.950870e-20
620, 3, 4.378502e+02, 6.688296e-41, 2.333834e+01, -1.711278e-19, -1.010876e+02, 3.950870e-20
620, 4, 4.378502e+02, 6.688296e-41, 2.333834e+01, -1.711278e-19, -1.010876e+02, 3.950870e-20
620, 5, 4.378502e+02, 6.688296e-41, 2.333834e+01, -1.711278e-19, -1.010876e+02, 3.950870e-20
620, 6, 4.378502e+02, 6.688296e-41, 2.333834e+01, -1.711278e-19, -1.010876e+02, 3.950870e-20
620, 7, 4.378502e+02, 6.688296e-41, 2.333834e+01, -1.711278e-19, -1.010876e+02, 3.950870e-20
620, 8, 4.378502e+02, 6.688296e-41, 2.333834e+01, -1.711278e-19, -1.010876e+02, 3.950870e-20
621, 1, 4.380390e+02, 6.850203e-41, 2.295661e+01, -1.732240e-19, -1.002791e+02, 3.965570e-20
621, 2, 4.380390e+02, 6.850203e-41, 2.295661e+01, -1.732240e-19, -1.002791e+02, 3.965570e-20
621, 3, 4.380390e+02, 6.850203e-41, 2.295661e+01, -1.732240e-19, -1.002791e+02, 3.965570e-20
621, 4, 4.380390e+02, 6.850203e-41, 2.295661e+01, -1.732240e-19, -1.002791e+02, 3.965570e-20
621, 5, 4.380390e+02, 6.850203e-41, 2.295661e+01, -1.732240e-19, -1.002791e+02, 3.965570e-20
621, 6, 4.380390e+02, 6.850203e-41, 2.295661e+01, -1.732240e-19, -1.002791e+02, 3.965570e-20
621, 7, 4.380390e+02, 6.850203e-41, 2.295661e+01, -1.732240e-19, -1.002791e+02, 3.965570e-20
621, 8, 4.380390e+02, 6.850203e-41, 2.295661e+01, -1.732240e-19, -1.002791e+02, 3.965570e-20
622, 1, 4.381710e+02, 7.001471e-41, 2.268335e+01, -1.751526e-19, -9.969547e+01, 3.985183e-20
622, 2, 4.381710e+02, 7.001471e-41, 2.268335e+01, -1.751526e-19, -9.969547e+01, 3.985183e-20
622, 3, 4.381710e+02, 7.001471e-41, 2.268335e+01, -1.751526e-19, -9.969547e+01, 3.985183e-20
622, 4, 4.381710e+02, 7.001471e-41, 2.268335e+01, -1.751526e-19, -9.969547e+01, 3.985183e-20
622, 5, 4.381710e+02, 7.001471e-41, 2.268335e+01, -1.751526e-19, -9.969547e+01, 3.985183e-20
622, 6, 4.381710e+02, 7.001471e-41, 2.268335e+01, -1.751526e-19, -9.969547e+01, 3.985183e-20
622, 7, 4.381710e+02, 7.001471e-41, 2.268335e+01, -1.751526e-19, -9.969547e+01, 3.985183e-20
622, 8, 4.381710e+02, 7.001471e-41, 2.268335e+01, -1.751526e-19, -9.969547e+01, 3.985183e-20
623, 1, 4.382623e+02, 7.125225e-41, 2.249571e+01, -1.767121e-19, -9.929260e+01, 4.003585e-20
623, 2, 4.382623e+02, 7.125225e-41, 2.249571e+01, -1.767121e-19, -9.929260e+01, 4.003585e-20
623, 3, 4.382623e+02, 7.125225e-41, 2.249571e+01, -1.767121e-19, -9.929260e+01, 4.003585e-20
623, 4, 4.382623e+02, 7.125225e-41, 2.249571e+01, -1.767121e-19, -9.929260e+01, 4.003585e-20
623, 5, 4.382623e+02, 7.125225e-41, 2.249571e+01, -1.767121e-19, -9.929260e+01, 4.003585e-20
623, 6, 4.382623e+02, 7.125225e-41, 2.249571e+01, -1.767121e-19, -9.929260e+01, 4.003585e-20
623, 7, 4.382623e+02, 7.125225e-41, 2.249571e+01, -1.767121e-19, -9.929260e+01, 4.003585e-20
623, 8, 4.382623e+02, 7.125225e-41, 2.249571e+01, -1.767121e-19, -9.929260e+01, 4.003585e-20
624, 1, 4.383938e+02, 7.153438e-41, 2.222518e+01, -1.770882e-19, -9.870856e+01, 3.987310e-20
624, 2, 4.383938e+02, 7.153438e-41, 2.222518e+01, -1.770882e-19, -9.870856e+01, 3.987310e-20
624, 3, 4.383938e+02, 7.153438e-41, 2.222518e+01, -1.770882e-19, -9.870856e+01, 3.987310e-20
624, 4, 4.383938e+02, 7.153438e-41, 2.222518e+01, -1.770882e-19, -9.870856e+01, 3.987310e-20
624, 5, 4.383938e+02, 7.153438e-41, 2.222518e+01, -1.770882e-19, -9.870856e+01, 3.987310e-20
624, 6, 4.383938e+02, 7.153438e-41, 2.222518e+01, -1.770882e-19, -9.870856e+01, 3.987310e-20
624, 7, 4.383938e+02, 7.153438e-41, 2.222518e+01, -1.770882e-19, -9.870856e+01, 3.987310e-20
624, 8, 4.383938e+02, 7.153438e-41, 2.222518e+01, -1.770882e-19, -9.870856e+01, 3.987310e-20
625, 1, 4.385761e+02, 7.244479e-41, 2.185230e+01, -1.782486e-19, -9.789737e+01, 3.978800e-20
625, 2, 4.385761e+02, 7.244479e-41, 2.185230e+01, -1.782486e-19, -9.789737e+01, 3.978800e-20
625, 3, 4.385761e+02, 7.244479e-41, 2.185230e+01, -1.782486e-19, -9.789737e+01, 3.978800e-20
625, 4, 4.385761e+02, 7.244479e-41, 2.185230e+01, -1.782486e-19, -9.789737e+01, 3.978800e-20
625, 5, 4.385761e+02, 7.244479e-41, 2.185230e+01, -1.782486e-19, -9.789737e+01, 3.978800e-20
625, 6, 4.385761e+02, 7.244479e-41, 2.185230e+01, -1.782486e-19, -9.789737e+01, 3.978800e-20
625, 7, 4.385761e+02, 7.244479e-41, 2.185230e+01, -1.782486e-19, -9.789737e+01, 3.978800e-20
625, 8, 4.385761e+02, 7.244479e-41, 2.185230e+01, -1.782486e-19, -9.789737e+01, 3.978800e-20
626, 1, 4.387060e+02, 7.483181e-41, 2.158557e+01, -1.811882e-19, -9.731248e+01, 4.019064e-20
626, 2, 4.387060e+02, 7.483181e-41, 2.158557e+01, -1.811882e-19, -9.731248e+01, 4.019064e-20
626, 3, 4.387060e+02, 7.483181e-41, 2.158557e+01, -1.811882e-19, -9.731248e+01, 4.019064e-20
626, 4, 4.387060e+02, 7.483181e-41, 2.158557e+01, -1.811882e-19, -9.731248e+01, 4.019064e-20
626, 5, 4.387060e+02, 7.483181e-41, 2.158557e+01, -1.811882e-19, -9.731248e+01, 4.019064e-20
626, 6, 4.387060e+02, 7.483181e-41, 2.158557e+01, -1.811882e-19, -9.731248e+01, 4.019064e-20
626, 7, 4.387060e+02, 7.483181e-41, 2.158557e+01, -1.811882e-19, -9.731248e+01, 4.019064e-20
626, 8, 4.387060e+02, 7.483181e-41, 2.158557e+01, -1.811882e-19, -9.731248e+01, 4.019064e-20
627, 1, 4.387950e+02, 7.436011e-41, 2.140239e+01, -1.806346e-19, -9.690853e+01, 3.989341e-20
627, 2, 4.387950e+02, 7.436011e-41, 2.140239e+01, -1.806346e-19, -9.690853e+01, 3.989341e-20
627, 3, 4.387950e+02, 7.436011e-41, 2.140239e+01, -1.806346e-19, -9.690853e+01, 3.989341e-20
627, 4, 4.387950e+02, 7.436011e-41, 2.140239e+01, -1.806346e-19, -9.690853e+01, 3.989341e-20
627, 5, 4.387950e+02, 7.436011e-41, 2.140239e+01, -1.806346e-19, -9.690853e+01, 3.989341e-20
627, 6, 4.387950e+02, 7.436011e-41, 2.140239e+01, -1.806346e-19, -9.690853e+01, 3.989341e-20
627, 7, 4.387950e+02, 7.436011e-41, 2.140239e+01, -1.806346e-19, -9.690853e+01, 3.989341e-20
627, 8, 4.387950e+02, 7.436011e-41, 2.140239e+01, -1.806346e-19, -9.690853e+01, 3.989341e-20
628, 1, 4.389245e+02, 7.550062e-41, 2.113840e+01, -1.820414e-19, -9.632322e+01, 3.994950e-20
628, 2, 4.389245e+02, 7.550062e-41, 2.113840e+01, -1.820414e-19, -9.632322e+01, 3.994950e-20
628, 3, 4.389245e+02, 7.550062e-41, 2.113840e+01, -1.820414e-19, -9.632322e+01, 3.994950e-20
628, 4, 4.389245e+02, 7.550062e-41, 2.113840e+01, -1.820414e-19, -9.632322e+01, 3.994950e-20
628, 5, 4.389245e+02, 7.550062e-41, 2.113840e+01, -1.820414e-19, -9.632322e+01, 3.994950e-20
628, 6, 4.389245e+02, 7.550062e-41, 2.113840e+01, -1.820414e-19, -9.632322e+01, 3.994950e-20
628, 7, 4.389245e+02, 7.550062e-41, 2.113840e+01, -1.820414e-19, -9.632322e+01, 3.994950e-20
628, 8, 4.389245e+02, 7.550062e-41, 2.113840e+01, -1.820414e-19, -9.632322e+01, 3.994950e-20
629, 1, 4.391001e+02, 7.590630e-41, 2.077441e+01, -1.825663e-19, -9.550940e+01, 3.971031e-20
629, 2, 4.391001e+02, 7.590630e-41, 2.077441e+01, -1.825663e-19, -9.550940e+01, 3.971031e-20
629, 3, 4.391001e+02, 7.590630e-41, 2.077441e+01, -1.825663e-19, -9.550940e+01, 3.971031e-20
629, 4, 4.391001e+02, 7.590630e-41, 2.077441e+01, -1.825663e-19, -9.550940e+01, 3.971031e-20
629, 5, 4.391001e+02, 7.590630e-41, 2.077441e+01, -1.825663e-19, -9.550940e+01, 3.971031e-20
629, 6, 4.391001e+02, 7.590630e-41, 2.077441e+01, -1.825663e-19, -9.550940e+01, 3.971031e-20
629, 7, 4.391001e+02, 7.590630e-41, 2.077441e+01, -1.825663e-19, -9.550940e+01, 3.971031e-20
629, 8, 4.391001e+02, 7.590630e-41, 2.077441e+01, -1.825663e-19, -9.550940e+01, 3.971031e-20
630, 1, 4.392301e+02, 7.703831e-41, 2.051433e+01, -1.839499e-19, -9.492372e+01, 3.975411e-20
630, 2, 4.392301e+02, 7.703831e-41, 2.051433e+01, -1.839499e-19, -9.492372e+01, 3.975411e-20
630, 3, 4.392301e+02, 7.703831e-41, 2.051433e+01, -1.839499e-19, -9.492372e+01, 3.975411e-20
630, 4, 4.392301e+02, 7.703831e-41, 2.051433e+01, -1.839499e-19, -9.492372e+01, 3.975411e-20
630, 5, 4.392301e+02, 7.703831e-41, 2.051433e+01, -1.839499e-19, -9.492372e+01, 3.975411e-20
630, 6, 4.392301e+02, 7.703831e-41, 2.051433e+01, -1.839499e-19, -9.492372e+01, 3.975411e-20
630, 7, 4.392301e+02, 7.703831e-41, 2.051433e+01, -1.839499e-19, -9.492372e+01, 3.975411e-20
630, 8, 4.392301e+02, 7.703831e-41, 2.051433e+01, -1.839499e-19, -9.492372e+01, 3.975411e-20
631, 1, 4.393169e+02, 7.771475e-41, 2.033563e+01, -1.847739e-19, -9.451871e+01, 3.975398e-20
631, 2, 4.393169e+02, 7.771475e-41, 2.033563e+01, -1.847739e-19, -9.451871e+01, 3.975398e-20
631, 3, 4.393169e+02, 7.771475e-41, 2.033563e+01, -1.847739e-19, -9.451871e+01, 3.975398e-20
631, 4, 4.393169e+02, 7.771475e-41, 2.033563e+01, -1.847739e-19, -9.451871e+01, 3.975398e-20
631, 5, 4.393169e+02, 7.771475e-41, 2.033563e+01, -1.847739e-19, -9.451871e+01, 3.975398e-20
631, 6, 4.393169e+02, 7.771475e-41, 2.033563e+01, -1.847739e-19, -9.451871e+01, 3.975398e-20
631, 7, 4.393169e+02, 7.771475e-41, 2.033563e+01, -1.847739e-19, -9.451871e+01, 3.975398e-20
631, 8, 4.393169e+02, 7.771475e-41, 2.033563e+01, -1.847739e-19, -9.451871e+01, 3.975398e-20
632, 1, 4.394051e+02, 7.777657e-41, 2.015546e+01, -1.848660e-19, -9.410852e+01, 3.959322e-20
632, 2, 4.394051e+02, 7.777657e-41, 2.015546e+01, -1.848660e-19, -9.410852e+01, 3.959322e-20
632, 3, 4.394051e+02, 7.777657e-41, 2.015546e+01, -1.848660e-19, -9.410852e+01, 3.959322e-20
632, 4, 4.394051e+02, 7.777657e-41, 2.015546e+01, -1.848660e-19, -9.410852e+01, 3.959322e-20
632, 5, 4.394051e+02, 7.777657e-41, 2.015546e+01, -1.848660e-19, -9.410852e+01, 3.959322e-20
632, 6, 4.394051e+02, 7.777657e-41, 2.015546e+01, -1.848660e-19, -9.410852e+01, 3.959322e-20
632, 7, 4.394051e+02, 7.777657e-41, 2.015546e+01, -1.848660e-19, -9.410852e+01, 3.959322e-20
632, 8, 4.394051e+02, 7.777657e-41, 2.015546e+01, -1.848660e-19, -9.410852e+01, 3.959322e-20
633, 1, 4.395085e+02, 7.805336e-41, 1.994226e+01, -1.852164e-19, -9.362046e+01, 3.945326e-20
633, 2, 4.395085e+02, 7.805336e-41, 1.994226e+01, -1.852164e-19, -9.362046e+01, 3.945326e-20
633, 3, 4.395085e+02, 7.805336e-41, 1.994226e+01, -1.852164e-19, -9.362046e+01, 3.945326e-20
633, 4, 4.395085e+02, 7.805336e-41, 1.994226e+01, -1.852164e-19, -9.362046e+01, 3.945326e-20
633, 5, 4.395085e+02, 7.805336e-41, 1.994226e+01, -1.852164e-19, -9.362046e+01, 3.945326e-20
633, 6, 4.395085e+02, 7.805336e-41, 1.994226e+01, -1.852164e-19, -9.362046e+01, 3.945326e-20
633, 7, 4.395085e+02, 7.805336e-41, 1.994226e+01, -1.852164e-19, -9.362046e+01, 3.945326e-20
633, 8, 4.395085e+02, 7.805336e-41, 1.994226e+01, -1.852164e-19, -9.362046e+01, 3.945326e-20
634, 1, 4.396461e+02, 7.850835e-41, 1.966556e+01, -1.857845e-19, -9.298327e+01, 3.929263e-20
634, 2, 4.396461e+02, 7.850835e-41, 1.966556e+01, -1.857845e-19, -9.298327e+01, 3.929263e-20
634, 3, 4.396461e+02, 7.850835e-41, 1.966556e+01, -1.857845e-19, -9.298327e+01, 3.929263e-20
634, 4, 4.396461e+02, 7.850835e-41, 1.966556e+01, -1.857845e-19, -9.298327e+01, 3.929263e-20
634, 5, 4.396461e+02, 7.850835e-41, 1.966556e+01, -1.857845e-19, -9.298327e+01, 3.929263e-20
634, 6, 4.396461e+02, 7.850835e-41, 1.966556e+01, -1.857845e-19, -9.298327e+01, 3.929263e-20
634, 7, 4.396461e+02, 7.850835e-41, 1.966556e+01, -1.857845e-19, -9.298327e+01, 3.929263e-20
634, 8, 4.396461e+02, 7.850835e-41, 1.966556e+01, -1.857845e-19, -9.298327e+01, 3.929263e-20
635, 1, 4.397673e+02, 7.927936e-41, 1.941211e+01, -1.867203e-19, -9.239486e+01, 3.922983e-20
635, 2, 4.397673e+02, 7.927936e-41, 1.941211e+01, -1.867203e-19, -9.239486e+01, 3.922983e-20
635, 3, 4.397673e+02, 7.927936e-41, 1.941211e+01, -1.867203e-19, -9.239486e+01, 3.922983e-20
635, 4, 4.397673e+02, 7.927936e-41, 1.941211e+01, -1.867203e-19, -9.239486e+01, 3.922983e-20
635, 5, 4.397673e+02, 7.927936e-41, 1.941211e+01, -1.867203e-19, -9.239486e+01, 3.922983e-20
635, 6, 4.397673e+02, 7.927936e-41, 1.941211e+01, -1.867203e-19, -9.239486e+01, 3.922983e-20
635, 7, 4.397673e+02, 7.927936e-41, 1.941211e+01, -1.867203e-19, -9.239486e+01, 3.922983e-20
635, 8, 4.397673e+02, 7.927936e-41, 1.941211e+01, -1.867203e-19, -9.239486e+01, 3.922983e-20
636, 1, 4.398537e+02, 7.926399e-41, 1.923824e+01, -1.867205e-19, -9.198919e+01, 3.904996e-20
636, 2, 4.398537e+02, 7.926399e-41, 1.923824e+01, -1.867205e-19, -9.198919e+01, 3.904996e-20
636, 3, 4.398537e+02, 7.926399e-41, 1.923824e+01, -1.867205e-19, -9.198919e+01, 3.904996e-20
636, 4, 4.398537e+02, 7.926399e-41, 1.923824e+01, -1.867205e-19, -9.198919e+01, 3.904996e-20
636, 5, 4.398537e+02, 7.926399e-41, 1.923824e+01, -1.867205e-19, -9.198919e+01, 3.904996e-20
636, 6, 4.398537e+02, 7.926399e-41, 1.923824e+01, -1.867205e-19, -9.198919e+01, 3.904996e-20
636, 7, 4.398537e+02, 7.926399e-41, 1.923824e+01, -1.867205e-19, -9.198919e+01, 3.904996e-20
636, 8, 4.398537e+02, 7.926399e-41, 1.923824e+01, -1.867205e-19, -9.198919e+01, 3.904996e-20
637, 1, 4.399765e+02, 7.997948e-41, 1.898763e+01, -1.875876e-19, -9.140083e+01, 3.896949e-20
637, 2, 4.399765e+02, 7.997948e-41, 1.898763e+01, -1.875876e-19, -9.140083e+01, 3.896949e-20
637, 3, 4.399765e+02, 7.997948e-41, 1.898763e+01, -1.875876e-19, -9.140083e+01, 3.896949e-20
637, 4, 4.399765e+02, 7.997948e-41, 1.898763e+01, -1.875876e-19, -9.140083e+01, 3.896949e-20
637, 5, 4.399765e+02, 7.997948e-41, 1.898763e+01, -1.875876e-19, -9.140083e+01, 3.896949e-20
637, 6, 4.399765e+02, 7.997948e-41, 1.898763e+01, -1.875876e-19, -9.140083e+01, 3.896949e-20
637, 7, 4.399765e+02, 7.997948e-41, 1.898763e+01, -1.875876e-19, -9.140083e+01, 3.896949e-20
637, 8, 4.399765e+02, 7.997948e-41, 1.898763e+01, -1.875876e-19, -9.140083e+01, 3.896949e-20
638, 1, 4.401469e+02, 7.929421e-41, 1.864238e+01, -1.868184e-19, -9.058358e+01, 3.844779e-20
638, 2, 4.401469e+02, 7.929421e-41, 1.864238e+01, -1.868184e-19, -9.058358e+01, 3.844779e-20
638, 3, 4.401469e+02, 7.929421e-41, 1.864238e+01, -1.868184e-19, -9.058358e+01, 3.844779e-20
638, 4, 4.401469e+02, 7.929421e-41, 1.864238e+01, -1.868184e-19, -9.058358e+01, 3.844779e-20
638, 5, 4.401469e+02, 7.929421e-41, 1.864238e+01, -1.868184e-19, -9.058358e+01, 3.844779e-20
638, 6, 4.401469e+02, 7.929421e-41, 1.864238e+01, -1.868184e-19, -9.058358e+01, 3.844779e-20
638, 7, 4.401469e+02, 7.929421e-41, 1.864238e+01, -1.868184e-19, -9.058358e+01, 3.844779e-20
638, 8, 4.401469e+02, 7.929421e-41, 1.864238e+01, -1.868184e-19, -9.058358e+01, 3.844779e-20
639, 1, 4.402659e+02, 7.917892e-41, 1.839551e+01, -1.867077e-19, -8.999399e+01, 3.816460e-20
639, 2, 4.402659e+02, 7.917892e-41, 1.839551e+01, -1.867077e-19, -8.999399e+01, 3.816460e-20
639, 3, 4.402659e+02, 7.917892e-41, 1.839551e+01, -1.867077e-19, -8.999399e+01, 3.816460e-20
639, 4, 4.402659e+02, 7.917892e-41, 1.839551e+01, -1.867077e-19, -8.999399e+01, 3.816460e-20
639, 5, 4.402659e+02, 7.917892e-41, 1.839551e+01, -1.867077e-19, -8.999399e+01, 3.816460e-20
639, 6, 4.402659e+02, 7.917892e-41, 1.839551e+01, -1.867077e-19, -8.999399e+01, 3.816460e-20
639, 7, 4.402659e+02, 7.917892e-41, 1.839551e+01, -1.867077e-19, -8.999399e+01, 3.816460e-20
639, 8, 4.402659e+02, 7.917892e-41, 1.839551e+01, -1.867077e-19, -8.999399e+01, 3.816460e-20
640, 1, 4.403501e+02, 8.013213e-41, 1.822615e+01, -1.878462e-19, -8.958730e+01, 3.821649e-20
640, 2, 4.403501e+02, 8.013213e-41, 1.822615e+01, -1.878462e-19, -8.958730e+01, 3.821649e-20
640, 3, 4.403501e+02, 8.013213e-41, 1.822615e+01, -1.878462e-19, -8.958730e+01, 3.821649e-20
640, 4, 4.403501e+02, 8.013213e-41, 1.822615e+01, -1.878462e-19, -8.958730e+01, 3.821649e-20
640, 5, 4.403501e+02, 8.013213e-41, 1.822615e+01, -1.878462e-19, -8.958730e+01, 3.821649e-20
640, 6, 4.403501e+02, 8.013213e-41, 1.822615e+01, -1.878462e-19, -8.958730e+01, 3.821649e-20
640, 7, 4.403501e+02, 8.013213e-41, 1.822615e+01, -1.878462e-19, -8.958730e+01, 3.821649e-20
640, 8, 4.403501e+02, 8.013213e-41, 1.822615e+01, -1.878462e-19, -8.958730e+01, 3.821649e-20
641, 1, 4.404686e+02, 7.971884e-41, 1.798203e+01, -1.873864e-19, -8.899731e+01, 3.786168e-20
641, 2, 4.404686e+02, 7.971884e-41, 1.798203e+01, -1.873864e-19, -8.899731e+01, 3.786168e-20
641, 3, 4.404686e+02, 7.971884e-41, 1.798203e+01, -1.873864e-19, -8.899731e+01, 3.786168e-20
641, 4, 4.404686e+02, 7.971884e-41, 1.798203e+01, -1.873864e-19, -8.899731e+01, 3.786168e-20
641, 5, 4.404686e+02, 7.971884e-41, 1.798203e+01, -1.873864e-19, -8.899731e+01, 3.786168e-20
641, 6, 4.404686e+02, 7.971884e-41, 1.798203e+01, -1.873864e-19, -8.899731e+01, 3.786168e-20
641, 7, 4.404686e+02, 7.971884e-41, 1.798203e+01, -1.873864e-19, -8.899731e+01, 3.786168e-20
641, 8, 4.404686e+02, 7.971884e-41, 1.798203e+01, -1.873864e-19, -8.899731e+01, 3.786168e-20
642, 1, 4.406344e+02, 7.927406e-41, 1.764585e+01, -1.868980e-19, -8.817805e+01, 3.740132e-20
642, 2, 4.406344e+02, 7.927406e-41, 1.764585e+01, -1.868980e-19, -8.817805e+01, 3.740132e-20
642, 3, 4.406344e+02, 7.927406e-41, 1.764585e+01, -1.868980e-19, -8.817805e+01, 3.740132e-20
642, 4, 4.406344e+02, 7.927406e-41, 1.764585e+01, -1.868980e-19, -8.817805e+01, 3.740132e-20
642, 5, 4.406344e+02, 7.927406e-41, 1.764585e+01, -1.868980e-19, -8.817805e+01, 3.740132e-20
642, 6, 4.406344e+02, 7.927406e-41, 1.764585e+01, -1.868980e-19, -8.817805e+01, 3.740132e-20
642, 7, 4.406344e+02, 7.927406e-41, 1.764585e+01, -1.868980e-19, -8.817805e+01, 3.740132e-20
642, 8, 4.406344e+02, 7.927406e-41, 1.764585e+01, -1.868980e-19, -8.817805e+01, 3.740132e-20
643, 1, 4.407513e+02, 7.878254e-41, 1.740558e+01, -1.863425e-19, -8.758729e+01, 3.703047e-20
643, 2, 4.407513e+02, 7.878254e-41, 1.740558e+01, -1.863425e-19, -8.758729e+01, 3.703047e-20
643, 3, 4.407513e+02, 7.878254e-41, 1.740558e+01, -1.863425e-19, -8.758729e+01, 3.703047e-20
643, 4, 4.407513e+02, 7.878254e-41, 1.740558e+01, -1.863425e-19, -8.758729e+01, 3.703047e-20
643, 5, 4.407513e+02, 7.878254e-41, 1.740558e+01, -1.863425e-19, -8.758729e+01, 3.703047e-20
643, 6, 4.407513e+02, 7.878254e-41, 1.740558e+01, -1.863425e-19, -8.758729e+01, 3.703047e-20
643, 7, 4.407513e+02, 7.878254e-41, 1.740558e+01, -1.863425e-19, -8.758729e+01, 3.703047e-20
643, 8, 4.407513e+02, 7.878254e-41, 1.740558e+01, -1.863425e-19, -8.758729e+01, 3.703047e-20
644, 1, 4.408311e+02, 7.883552e-41, 1.724064e+01, -1.864220e-19, -8.717919e+01, 3.686699e-20
644, 2, 4.408311e+02, 7.883552e-41, 1.724064e+01, -1.864220e-19, -8.717919e+01, 3.686699e-20
644, 3, 4.408311e+02, 7.883552e-41, 1.724064e+01, -1.864220e-19, -8.717919e+01, 3.686699e-20
644, 4, 4.408311e+02, 7.883552e-41, 1.724064e+01, -1.864220e-19, -8.717919e+01, 3.686699e-20
644, 5, 4.408311e+02, 7.883552e-41, 1.724064e+01, -1.864220e-19, -8.717919e+01, 3.686699e-20
644, 6, 4.408311e+02, 7.883552e-41, 1.724064e+01, -1.864220e-19, -8.717919e+01, 3.686699e-20
644, 7, 4.408311e+02, 7.883552e-41, 1.724064e+01, -1.864220e-19, -8.717919e+01, 3.686699e-20
644, 8, 4.408311e+02, 7.883552e-41, 1.724064e+01, -1.864220e-19, -8.717919e+01, 3.686699e-20
645, 1, 4.409475e+02, 7.876650e-41, 1.700313e+01, -1.863649e-19, -8.658805e+01, 3.659614e-20
645, 2, 4.409475e+02, 7.876650e-41, 1.700313e+01, -1.863649e-19, -8.658805e+01, 3.659614e-20
645, 3, 4.409475e+02, 7.876650e-41, 1.700313e+01, -1.863649e-19, -8.658805e+01, 3.659614e-20
645, 4, 4.409475e+02, 7.876650e-41, 1.700313e+01, -1.863649e-19, -8.658805e+01, 3.659614e-20
645, 5, 4.409475e+02, 7.876650e-41, 1.700313e+01, -1.863649e-19, -8.658805e+01, 3.659614e-20
645, 6, 4.409475e+02, 7.876650e-41, 1.700313e+01, -1.863649e-19, -8.658805e+01, 3.659614e-20
645, 7, 4.409475e+02, 7.876650e-41, 1.700313e+01, -1.863649e-19, -8.658805e+01, 3.659614e-20
645, 8, 4.409475e+02, 7.876650e-41, 1.700313e+01, -1.863649e-19, -8.658805e+01, 3.659614e-20
646, 1, 4.416588e+02, 7.458459e-41, 1.555863e+01, -1.814964e-19, -8.289514e+01, 3.406514e-20
646, 2, 4.416588e+02, 7.458459e-41, 1.555863e+01, -1.814964e-19, -8.289514e+01, 3.406514e-20
646, 3, 4.416588e+02, 7.458459e-41, 1.555863e+01, -1.814964e-19, -8.289514e+01, 3.406514e-20
646, 4, 4.416588e+02, 7.458459e-41, 1.555863e+01, -1.814964e-19, -8.289514e+01, 3.406514e-20
646, 5, 4.416588e+02, 7.458459e-41, 1.555863e+01, -1.814964e-19, -8.289514e+01, 3.406514e-20
646, 6, 4.416588e+02, 7.458459e-41, 1.555863e+01, -1.814964e-19, -8.289514e+01, 3.406514e-20
646, 7, 4.416588e+02, 7.458459e-41, 1.555863e+01, -1.814964e-19, -8.289514e+01, 3.406514e-20
646, 8, 4.416588e+02, 7.458459e-41, 1.555863e+01, -1.814964e-19, -8.289514e+01, 3.406514e-20
647, 1, 4.417681e+02, 7.407867e-41, 1.533273e+01, -1.809022e-19, -8.230135e+01, 3.370206e-20
647, 2, 4.417681e+02, 7.407867e-41, 1.533273e+01, -1.809022e-19, -8.230135e+01, 3.370206e-20
647, 3, 4.417681e+02, 7.407867e-41, 1.533273e+01, -1.809022e-19, -8.230135e+01, 3.370206e-20
647, 4, 4.417681e+02, 7.407867e-41, 1.533273e+01, -1.809022e-19, -8.230135e+01, 3.370206e-20
647, 5, 4.417681e+02, 7.407867e-41, 1.533273e+01, -1.809022e-19, -8.230135e+01, 3.370206e-20
647, 6, 4.417681e+02, 7.407867e-41, 1.533273e+01, -1.809022e-19, -8.230135e+01, 3.370206e-20
647, 7, 4.417681e+02, 7.407867e-41, 1.533273e+01, -1.809022e-19, -8.230135e+01, 3.370206e-20
647, 8, 4.417681e+02, 7.407867e-41, 1.533273e+01, -1.809022e-19, -8.230135e+01, 3.370206e-20
648, 1, 4.418445e+02, 7.304424e-41, 1.517779e+01, -1.796502e-19, -8.189153e+01, 3.329639e-20
648, 2, 4.418445e+02, 7.304424e-41, 1.517779e+01, -1.796502e-19, -8.189153e+01, 3.329639e-20
648, 3, 4.418445e+02, 7.304424e-41, 1.517779e+01, -1.796502e-19, -8.189153e+01, 3.329639e-20
648, 4, 4.418445e+02, 7.304424e-41, 1.517779e+01, -1.796502e-19, -8.189153e+01, 3.329639e-20
648, 5, 4.418445e+02, 7.304424e-41, 1.517779e+01, -1.796502e-19, -8.189153e+01, 3.329639e-20
648, 6, 4.418445e+02, 7.304424e-41, 1.517779e+01, -1.796502e-19, -8.189153e+01, 3.329639e-20
648, 7, 4.418445e+02, 7.304424e-41, 1.517779e+01, -1.796502e-19, -8.189153e+01, 3.329639e-20
648, 8, 4.418445e+02, 7.304424e-41, 1.517779e+01, -1.796502e-19, -8.189153e+01, 3.329639e-20
649, 1, 4.419555e+02, 7.250676e-41, 1.495474e+01, -1.790105e-19, -8.129778e+01, 3.292901e-20
649, 2, 4.419555e+02, 7.250676e-41, 1.495474e+01, -1.790105e-19, -8.129778e+01, 3.292901e-20
649, 3, 4.419555e+02, 7.250676e-41, 1.495474e+01, -1.790105e-19, -8.129778e+01, 3.292901e-20
649, 4, 4.419555e+02, 7.250676e-41, 1.495474e+01, -1.790105e-19, -8.129778e+01, 3.292901e-20
649, 5, 4.419555e+02, 7.250676e-41, 1.495474e+01, -1.790105e-19, -8.129778e+01, 3.292901e-20
649, 6, 4.419555e+02, 7.250676e-41, 1.495474e+01, -1.790105e-19, -8.129778e+01, 3.292901e-20
649, 7, 4.419555e+02, 7.250676e-41, 1.495474e+01, -1.790105e-19, -8.129778e+01, 3.292901e-20
649, 8, 4.419555e+02, 7.250676e-41, 1.495474e+01, -1.790105e-19, -8.129778e+01, 3.292901e-20
650, 1, 4.421056e+02, 7.055403e-41, 1.464761e+01, -1.766135e-19, -8.047229e+01, 3.214728e-20
650, 2, 4.421056e+02, 7.055403e-41, 1.464761e+01, -1.766135e-19, -8.047229e+01, 3.214728e-20
650, 3, 4.421056e+02, 7.055403e-41, 1.464761e+01, -1.766135e-19, -8.047229e+01, 3.214728e-20
650, 4, 4.421056e+02, 7.055403e-41, 1.464761e+01, -1.766135e-19, -8.047229e+01, 3.214728e-20
650, 5, 4.421056e+02, 7.055403e-41, 1.464761e+01, -1.766135e-19, -8.047229e+01, 3.214728e-20
650, 6, 4.421056e+02, 7.055403e-41, 1.464761e+01, -1.766135e-19, -8.047229e+01, 3.214728e-20
650, 7, 4.421056e+02, 7.055403e-41, 1.464761e+01, -1.766135e-19, -8.047229e+01, 3.214728e-20
650, 8, 4.421056e+02, 7.055403e-41, 1.464761e+01, -1.766135e-19, -8.047229e+01, 3.214728e-20
651, 1, 4.422150e+02, 6.954635e-41, 1.442843e+01, -1.753694e-19, -7.987783e+01, 3.167719e-20
651, 2, 4.422150e+02, 6.954635e-41, 1.442843e+01, -1.753694e-19, -7.987783e+01, 3.167719e-20
651, 3, 4.422150e+02, 6.954635e-41, 1.442843e+01, -1.753694e-19, -7.987783e+01, 3.167719e-20
651, 4, 4.422150e+02, 6.954635e-41, 1.442843e+01, -1.753694e-19, -7.987783e+01, 3.167719e-20
651, 5, 4.422150e+02, 6.954635e-41, 1.442843e+01, -1.753694e-19, -7.987783e+01, 3.167719e-20
651, 6, 4.422150e+02, 6.954635e-41, 1.442843e+01, -1.753694e-19, -7.987783e+01, 3.167719e-20
651, 7, 4.422150e+02, 6.954635e-41, 1.442843e+01, -1.753694e-19, -7.987783e+01, 3.167719e-20
651, 8, 4.422150e+02, 6.954635e-41, 1.442843e+01, -1.753694e-19, -7.987783e+01, 3.167719e-20
652, 1, 4.422869e+02, 6.904155e-41, 1.427796e+01, -1.747460e-19, -7.946671e+01, 3.139702e-20
652, 2, 4.422869e+02, 6.904155e-41, 1.427796e+01, -1.747460e-19, -7.946671e+01, 3.139702e-20
652, 3, 4.422869e+02, 6.904155e-41, 1.427796e+01, -1.747460e-19, -7.946671e+01, 3.139702e-20
652, 4, 4.422869e+02, 6.904155e-41, 1.427796e+01, -1.747460e-19, -7.946671e+01, 3.139702e-20
652, 5, 4.422869e+02, 6.904155e-41, 1.427796e+01, -1.747460e-19, -7.946671e+01, 3.139702e-20
652, 6, 4.422869e+02, 6.904155e-41, 1.427796e+01, -1.747460e-19, -7.946671e+01, 3.139702e-20
652, 7, 4.422869e+02, 6.904155e-41, 1.427796e+01, -1.747460e-19, -7.946671e+01, 3.139702e-20
652, 8, 4.422869e+02, 6.904155e-41, 1.427796e+01, -1.747460e-19, -7.946671e+01, 3.139702e-20
653, 1, 4.423935e+02, 6.754672e-41, 1.406149e+01, -1.728648e-19, -7.887150e+01, 3.081895e-20
653, 2, 4.423935e+02, 6.754672e-41, 1.406149e+01, -1.728648e-19, -7.887150e+01, 3.081895e-20
653, 3, 4.423935e+02, 6.754672e-41, 1.406149e+01, -1.728648e-19, -7.887150e+01, 3.081895e-20
653, 4, 4.423935e+02, 6.754672e-41, 1.406149e+01, -1.728648e-19, -7.887150e+01, 3.081895e-20
653, 5, 4.423935e+02, 6.754672e-41, 1.406149e+01, -1.728648e-19, -7.887150e+01, 3.081895e-20
653, 6, 4.423935e+02, 6.754672e-41, 1.406149e+01, -1.728648e-19, -7.887150e+01, 3.081895e-20
653, 7, 4.423935e+02, 6.754672e-41, 1.406149e+01, -1.728648e-19, -7.887150e+01, 3.081895e-20
653, 8, 4.423935e+02, 6.754672e-41, 1.406149e+01, -1.728648e-19, -7.887150e+01, 3.081895e-20
654, 1, 4.425390e+02, 6.476789e-41, 1.376353e+01, -1.692995e-19, -7.804421e+01, 2.985690e-20
654, 2, 4.425390e+02, 6.476789e-41, 1.376353e+01, -1.692995e-19, -7.804421e+01, 2.985690e-20
654, 3, 4.425390e+02, 6.476789e-41, 1.376353e+01, -1.692995e-19, -7.804421e+01, 2.985690e-20
654, 4, 4.425390e+02, 6.476789e-41, 1.376353e+01, -1.692995e-19, -7.804421e+01, 2.985690e-20
654, 5, 4.425390e+02, 6.476789e-41, 1.376353e+01, -1.692995e-19, -7.804421e+01, 2.985690e-20
654, 6, 4.425390e+02, 6.476789e-41, 1.376353e+01, -1.692995e-19, -7.804421e+01, 2.985690e-20
654, 7, 4.425390e+02, 6.476789e-41, 1.376353e+01, -1.692995e-19, -7.804421e+01, 2.985690e-20
654, 8, 4.425390e+02, 6.476789e-41, 1.376353e+01, -1.692995e-19, -7.804421e+01, 2.985690e-20
655, 1, 4.426440e+02, 6.453056e-41, 1.355094e+01, -1.690091e-19, -7.744831e+01, 2.957109e-20
655, 2, 4.426440e+02, 6.453056e-41, 1.355094e+01, -1.690091e-19, -7.744831e+01, 2.957109e-20
655, 3, 4.426440e+02, 6.453056e-41, 1.355094e+01, -1.690091e-19, -7.744831e+01, 2.957109e-20
655, 4, 4.426440e+02, 6.453056e-41, 1.355094e+01, -1.690091e-19, -7.744831e+01, 2.957109e-20
655, 5, 4.426440e+02, 6.453056e-41, 1.355094e+01, -1.690091e-19, -7.744831e+01, 2.957109e-20
655, 6, 4.426440e+02, 6.453056e-41, 1.355094e+01, -1.690091e-19, -7.744831e+01, 2.957109e-20
655, 7, 4.426440e+02, 6.453056e-41, 1.355094e+01, -1.690091e-19, -7.744831e+01, 2.957109e-20
655, 8, 4.426440e+02, 6.453056e-41, 1.355094e+01, -1.690091e-19, -7.744831e+01, 2.957109e-20
656, 1, 4.427158e+02, 6.307780e-41, 1.340511e+01, -1.671094e-19, -7.703670e+01, 2.907860e-20
656, 2, 4.427158e+02, 6.307780e-41, 1.340511e+01, -1.671094e-19, -7.703670e+01, 2.907860e-20
656, 3, 4.427158e+02, 6.307780e-41, 1.340511e+01, -1.671094e-19, -7.703670e+01, 2.907860e-20
656, 4, 4.427158e+02, 6.307780e-41, 1.340511e+01, -1.671094e-19, -7.703670e+01, 2.907860e-20
656, 5, 4.427158e+02, 6.307780e-41, 1.340511e+01, -1.671094e-19, -7.703670e+01, 2.907860e-20
656, 6, 4.427158e+02, 6.307780e-41, 1.340511e+01, -1.671094e-19, -7.703670e+01, 2.907860e-20
656, 7, 4.427158e+02, 6.307780e-41, 1.340511e+01, -1.671094e-19, -7.703670e+01, 2.907860e-20
656, 8, 4.427158e+02, 6.307780e-41, 1.340511e+01, -1.671094e-19, -7.703670e+01, 2.907860e-20
657, 1, 4.428203e+02, 6.133538e-41, 1.319529e+01, -1.648046e-19, -7.644046e+01, 2.844887e-20
657, 2, 4.428203e+02, 6.133538e-41, 1.319529e+01, -1.648046e-19, -7.644046e+01, 2.844887e-20
657, 3, 4.428203e+02, 6.133538e-41, 1.319529e+01, -1.648046e-19, -7.644046e+01, 2.844887e-20
657, 4, 4.428203e+02, 6.133538e-41, 1.319529e+01, -1.648046e-19, -7.644046e+01, 2.844887e-20
657, 5, 4.428203e+02, 6.133538e-41, 1.319529e+01, -1.648046e-19, -7.644046e+01, 2.844887e-20
657, 6, 4.428203e+02, 6.133538e-41, 1.319529e+01, -1.648046e-19, -7.644046e+01, 2.844887e-20
657, 7, 4.428203e+02, 6.133538e-41, 1.319529e+01, -1.648046e-19, -7.644046e+01, 2.844887e-20
657, 8, 4.428203e+02, 6.133538e-41, 1.319529e+01, -1.648046e-19, -7.644046e+01, 2.844887e-20
658, 1, 4.429323e+02, 6.011920e-41, 1.296884e+01, -1.631831e-19, -7.579129e+01, 2.792269e-20
658, 2, 4.429323e+02, 6.011920e-41, 1.296884e+01, -1.631831e-19, -7.579129e+01, 2.792269e-20
658, 3, 4.429323e+02, 6.011920e-41, 1.296884e+01, -1.631831e-19, -7.579129e+01, 2.792269e-20
658, 4, 4.429323e+02, 6.011920e-41, 1.296884e+01, -1.631831e-19, -7.579129e+01, 2.792269e-20
658, 5, 4.429323e+02, 6.011920e-41, 1.296884e+01, -1.631831e-19, -7.579129e+01, 2.792269e-20
658, 6, 4.429323e+02, 6.011920e-41, 1.296884e+01, -1.631831e-19, -7.579129e+01, 2.792269e-20
658, 7, 4.429323e+02, 6.011920e-41, 1.296884e+01, -1.631831e-19, -7.579129e+01, 2.792269e-20
658, 8, 4.429323e+02, 6.011920e-41, 1.296884e+01, -1.631831e-19, -7.579129e+01, 2.792269e-20
659, 1, 4.430146e+02, 5.864827e-41, 1.279686e+01, -1.611895e-19, -7.529406e+01, 2.739550e-20
659, 2, 4.430146e+02, 5.864827e-41, 1.279686e+01, -1.611895e-19, -7.529406e+01, 2.739550e-20
659, 3, 4.430146e+02, 5.864827e-41, 1.279686e+01, -1.611895e-19, -7.529406e+01, 2.739550e-20
659, 4, 4.430146e+02, 5.864827e-41, 1.279686e+01, -1.611895e-19, -7.529406e+01, 2.739550e-20
659, 5, 4.430146e+02, 5.864827e-41, 1.279686e+01, -1.611895e-19, -7.529406e+01, 2.739550e-20
659, 6, 4.430146e+02, 5.864827e-41, 1.279686e+01, -1.611895e-19, -7.529406e+01, 2.739550e-20
659, 7, 4.430146e+02, 5.864827e-41, 1.279686e+01, -1.611895e-19, -7.529406e+01, 2.739550e-20
659, 8, 4.430146e+02, 5.864827e-41, 1.279686e+01, -1.611895e-19, -7.529406e+01, 2.739550e-20
660, 1, 4.430861e+02, 5.746637e-41, 1.265368e+01, -1.595699e-19, -7.487769e+01, 2.696592e-20
660, 2, 4.430861e+02, 5.746637e-41, 1.265368e+01, -1.595699e-19, -7.487769e+01, 2.696592e-20
660, 3, 4.430861e+02, 5.746637e-41, 1.265368e+01, -1.595699e-19, -7.487769e+01, 2.696592e-20
660, 4, 4.430861e+02, 5.746637e-41, 1.265368e+01, -1.595699e-19, -7.487769e+01, 2.696592e-20
660, 5, 4.430861e+02, 5.746637e-41, 1.265368e+01, -1.595699e-19, -7.487769e+01, 2.696592e-20
660, 6, 4.430861e+02, 5.746637e-41, 1.265368e+01, -1.595699e-19, -7.487769e+01, 2.696592e-20
660, 7, 4.430861e+02, 5.746637e-41, 1.265368e+01, -1.595699e-19, -7.487769e+01, 2.696592e-20
660, 8, 4.430861e+02, 5.746637e-41, 1.265368e+01, -1.595699e-19, -7.487769e+01, 2.696592e-20
661, 1, 4.431553e+02, 5.611899e-41, 1.251268e+01, -1.577004e-19, -7.446516e+01, 2.649904e-20
661, 2, 4.431553e+02, 5.611899e-41, 1.251268e+01, -1.577004e-19, -7.446516e+01, 2.649904e-20
661, 3, 4.431553e+02, 5.611899e-41, 1.251268e+01, -1.577004e-19, -7.446516e+01, 2.649904e-20
661, 4, 4.431553e+02, 5.611899e-41, 1.251268e+01, -1.577004e-19, -7.446516e+01, 2.649904e-20
661, 5, 4.431553e+02, 5.611899e-41, 1.251268e+01, -1.577004e-19, -7.446516e+01, 2.649904e-20
661, 6, 4.431553e+02, 5.611899e-41, 1.251268e+01, -1.577004e-19, -7.446516e+01, 2.649904e-20
661, 7, 4.431553e+02, 5.611899e-41, 1.251268e+01, -1.577004e-19, -7.446516e+01, 2.649904e-20
661, 8, 4.431553e+02, 5.611899e-41, 1.251268e+01, -1.577004e-19, -7.446516e+01, 2.649904e-20
662, 1, 4.432572e+02, 5.415486e-41, 1.230990e+01, -1.549340e-19, -7.386780e+01, 2.581939e-20
662, 2, 4.432572e+02, 5.415486e-41, 1.230990e+01, -1.549340e-19, -7.386780e+01, 2.581939e-20
662, 3, 4.432572e+02, 5.415486e-41, 1.230990e+01, -1.549340e-19, -7.386780e+01, 2.581939e-20
662, 4, 4.432572e+02, 5.415486e-41, 1.230990e+01, -1.549340e-19, -7.386780e+01, 2.581939e-20
662, 5, 4.432572e+02, 5.415486e-41, 1.230990e+01, -1.549340e-19, -7.386780e+01, 2.581939e-20
662, 6, 4.432572e+02, 5.415486e-41, 1.230990e+01, -1.549340e-19, -7.386780e+01, 2.581939e-20
662, 7, 4.432572e+02, 5.415486e-41, 1.230990e+01, -1.549340e-19, -7.386780e+01, 2.581939e-20
662, 8, 4.432572e+02, 5.415486e-41, 1.230990e+01, -1.549340e-19, -7.386780e+01, 2.581939e-20
663, 1, 4.433927e+02, 5.190281e-41, 1.203086e+01, -1.517014e-19, -7.303695e+01, 2.498871e-20
663, 2, 4.433927e+02, 5.190281e-41, 1.203086e+01, -1.517014e-19, -7.303695e+01, 2.498871e-20
663, 3, 4.433927e+02, 5.190281e-41, 1.203086e+01, -1.517014e-19, -7.303695e+01, 2.498871e-20
663, 4, 4.433927e+02, 5.190281e-41, 1.203086e+01, -1.517014e-19, -7.303695e+01, 2.498871e-20
663, 5, 4.433927e+02, 5.190281e-41, 1.203086e+01, -1.517014e-19, -7.303695e+01, 2.498871e-20
663, 6, 4.433927e+02, 5.190281e-41, 1.203086e+01, -1.517014e-19, -7.303695e+01, 2.498871e-20
663, 7, 4.433927e+02, 5.190281e-41, 1.203086e+01, -1.517014e-19, -7.303695e+01, 2.498871e-20
663, 8, 4.433927e+02, 5.190281e-41, 1.203086e+01, -1.517014e-19, -7.303695e+01, 2.498871e-20
664, 1, 4.434929e+02, 4.990529e-41, 1.183198e+01, -1.487704e-19, -7.243893e+01, 2.429976e-20
664, 2, 4.434929e+02, 4.990529e-41, 1.183198e+01, -1.487704e-19, -7.243893e+01, 2.429976e-20
664, 3, 4.434929e+02, 4.990529e-41, 1.183198e+01, -1.487704e-19, -7.243893e+01, 2.429976e-20
664, 4, 4.434929e+02, 4.990529e-41, 1.183198e+01, -1.487704e-19, -7.243893e+01, 2.429976e-20
664, 5, 4.434929e+02, 4.990529e-41, 1.183198e+01, -1.487704e-19, -7.243893e+01, 2.429976e-20
664, 6, 4.434929e+02, 4.990529e-41, 1.183198e+01, -1.487704e-19, -7.243893e+01, 2.429976e-20
664, 7, 4.434929e+02, 4.990529e-41, 1.183198e+01, -1.487704e-19, -7.243893e+01, 2.429976e-20
664, 8, 4.434929e+02, 4.990529e-41, 1.183198e+01, -1.487704e-19, -7.243893e+01, 2.429976e-20
665, 1, 4.435598e+02, 4.918537e-41, 1.169557e+01, -1.477046e-19, -7.202558e+01, 2.398439e-20
665, 2, 4.435598e+02, 4.918537e-41, 1.169557e+01, -1.477046e-19, -7.202558e+01, 2.398439e-20
665, 3, 4.435598e+02, 4.918537e-41, 1.169557e+01, -1.477046e-19, -7.202558e+01, 2.398439e-20
665, 4, 4.435598e+02, 4.918537e-41, 1.169557e+01, -1.477046e-19, -7.202558e+01, 2.398439e-20
665, 5, 4.435598e+02, 4.918537e-41, 1.169557e+01, -1.477046e-19, -7.202558e+01, 2.398439e-20
665, 6, 4.435598e+02, 4.918537e-41, 1.169557e+01, -1.477046e-19, -7.202558e+01, 2.398439e-20
665, 7, 4.435598e+02, 4.918537e-41, 1.169557e+01, -1.477046e-19, -7.202558e+01, 2.398439e-20
665, 8, 4.435598e+02, 4.918537e-41, 1.169557e+01, -1.477046e-19, -7.202558e+01, 2.398439e-20
666, 1, 4.436537e+02, 4.223157e-41, 1.150077e+01, -1.368802e-19, -7.143081e+01, 2.203850e-20
666, 2, 4.436537e+02, 4.223157e-41, 1.150077e+01, -1.368802e-19, -7.143081e+01, 2.203850e-20
666, 3, 4.436537e+02, 4.223157e-41, 1.150077e+01, -1.368802e-19, -7.143081e+01, 2.203850e-20
666, 4, 4.436537e+02, 4.223157e-41, 1.150077e+01, -1.368802e-19, -7.143081e+01, 2.203850e-20
666, 5, 4.436537e+02, 4.223157e-41, 1.150077e+01, -1.368802e-19, -7.143081e+01, 2.203850e-20
666, 6, 4.436537e+02, 4.223157e-41, 1.150077e+01, -1.368802e-19, -7.143081e+01, 2.203850e-20
666, 7, 4.436537e+02, 4.223157e-41, 1.150077e+01, -1.368802e-19, -7.143081e+01, 2.203850e-20
666, 8, 4.436537e+02, 4.223157e-41, 1.150077e+01, -1.368802e-19, -7.143081e+01, 2.203850e-20
667, 1, 4.437867e+02, 3.970083e-41, 1.123101e+01, -1.327354e-19, -7.059867e+01, 2.111588e-20
667, 2, 4.437867e+02, 3.970083e-41, 1.123101e+01, -1.327354e-19, -7.059867e+01, 2.111588e-20
667, 3, 4.437867e+02, 3.970083e-41, 1.123101e+01, -1.327354e-19, -7.059867e+01, 2.111588e-20
667, 4, 4.437867e+02, 3.970083e-41, 1.123101e+01, -1.327354e-19, -7.059867e+01, 2.111588e-20
667, 5, 4.437867e+02, 3.970083e-41, 1.123101e+01, -1.327354e-19, -7.059867e+01, 2.111588e-20
667, 6, 4.437867e+02, 3.970083e-41, 1.123101e+01, -1.327354e-19, -7.059867e+01, 2.111588e-20
667, 7, 4.437867e+02, 3.970083e-41, 1.123101e+01, -1.327354e-19, -7.059867e+01, 2.111588e-20
667, 8, 4.437867e+02, 3.970083e-41, 1.123101e+01, -1.327354e-19, -7.059867e+01, 2.111588e-20
668, 1, 4.438839e+02, 4.211210e-41, 1.103737e+01, -1.367219e-19, -6.999507e+01, 2.155938e-20
668, 2, 4.438839e+02, 4.211210e-41, 1.103737e+01, -1.367219e-19, -6.999507e+01, 2.155938e-20
668, 3, 4.438839e+02, 4.211210e-41, 1.103737e+01, -1.367219e-19, -6.999507e+01, 2.155938e-20
668, 4, 4.438839e+02, 4.211210e-41, 1.103737e+01, -1.367219e-19, -6.999507e+01, 2.155938e-20
668, 5, 4.438839e+02, 4.211210e-41, 1.103737e+01, -1.367219e-19, -6.999507e+01, 2.155938e-20
668, 6, 4.438839e+02, 4.211210e-41, 1.103737e+01, -1.367219e-19, -6.999507e+01, 2.155938e-20
668, 7, 4.438839e+02, 4.211210e-41, 1.103737e+01, -1.367219e-19, -6.999507e+01, 2.155938e-20
668, 8, 4.438839e+02, 4.211210e-41, 1.103737e+01, -1.367219e-19, -6.999507e+01, 2.155938e-20
669, 1, 4.439485e+02, 4.053055e-41, 1.090556e+01, -1.341398e-19, -6.958092e+01, 2.102399e-20
669, 2, 4.439485e+02, 4.053055e-41, 1.090556e+01, -1.341398e-19, -6.958092e+01, 2.102399e-20
669, 3, 4.439485e+02, 4.053055e-41, 1.090556e+01, -1.341398e-19, -6.958092e+01, 2.102399e-20
669, 4, 4.439485e+02, 4.053055e-41, 1.090556e+01, -1.341398e-19, -6.958092e+01, 2.102399e-20
669, 5, 4.439485e+02, 4.053055e-41, 1.090556e+01, -1.341398e-19, -6.958092e+01, 2.102399e-20
669, 6, 4.439485e+02, 4.053055e-41, 1.090556e+01, -1.341398e-19, -6.958092e+01, 2.102399e-20
669, 7, 4.439485e+02, 4.053055e-41, 1.090556e+01, -1.341398e-19, -6.958092e+01, 2.102399e-20
669, 8, 4.439485e+02, 4.053055e-41, 1.090556e+01, -1.341398e-19, -6.958092e+01, 2.102399e-20
670, 1, 4.440424e+02, 3.589735e-41, 1.071745e+01, -1.262535e-19, -6.898551e+01, 1.961448e-20
670, 2, 4.440424e+02, 3.589735e-41, 1.071745e+01, -1.262535e-19, -6.898551e+01, 1.961448e-20
670, 3, 4.440424e+02, 3.589735e-41, 1.071745e+01, -1.262535e-19, -6.898551e+01, 1.961448e-20
670, 4, 4.440424e+02, 3.589735e-41, 1.071745e+01, -1.262535e-19, -6.898551e+01, 1.961448e-20
670, 5, 4.440424e+02, 3.589735e-41, 1.071745e+01, -1.262535e-19, -6.898551e+01, 1.961448e-20
670, 6, 4.440424e+02, 3.589735e-41, 1.071745e+01, -1.262535e-19, -6.898551e+01, 1.961448e-20
670, 7, 4.440424e+02, 3.589735e-41, 1.071745e+01, -1.262535e-19, -6.898551e+01, 1.961448e-20
670, 8, 4.440424e+02, 3.589735e-41, 1.071745e+01, -1.262535e-19, -6.898551e+01, 1.961448e-20
671, 1, 4.441706e+02, 3.402702e-41, 1.045694e+01, -1.229382e-19, -6.815177e+01, 1.886315e-20
671, 2, 4.441706e+02, 3.402702e-41, 1.045694e+01, -1.229382e-19, -6.815177e+01, 1.886315e-20
671, 3, 4.441706e+02, 3.402702e-41, 1.045694e+01, -1.229382e-19, -6.815177e+01, 1.886315e-20
671, 4, 4.441706e+02, 3.402702e-41, 1.045694e+01, -1.229382e-19, -6.815177e+01, 1.886315e-20
671, 5, 4.441706e+02, 3.402702e-41, 1.045694e+01, -1.229382e-19, -6.815177e+01, 1.886315e-20
671, 6, 4.441706e+02, 3.402702e-41, 1.045694e+01, -1.229382e-19, -6.815177e+01, 1.886315e-20
671, 7, 4.441706e+02, 3.402702e-41, 1.045694e+01, -1.229382e-19, -6.815177e+01, 1.886315e-20
671, 8, 4.441706e+02, 3.402702e-41, 1.045694e+01, -1.229382e-19, -6.815177e+01, 1.886315e-20
672, 1, 4.442855e+02, 3.327777e-41, 1.022770e+01, -1.215929e-19, -6.740934e+01, 1.844871e-20
672, 2, 4.442855e+02, 3.327777e-41, 1.022770e+01, -1.215929e-19, -6.740934e+01, 1.844871e-20
672, 3, 4.442855e+02, 3.327777e-41, 1.022770e+01, -1.215929e-19, -6.740934e+01, 1.844871e-20
672, 4, 4.442855e+02, 3.327777e-41, 1.022770e+01, -1.215929e-19, -6.740934e+01, 1.844871e-20
672, 5, 4.442855e+02, 3.327777e-41, 1.022770e+01, -1.215929e-19, -6.740934e+01, 1.844871e-20
672, 6, 4.442855e+02, 3.327777e-41, 1.022770e+01, -1.215929e-19, -6.740934e+01, 1.844871e-20
672, 7, 4.442855e+02, 3.327777e-41, 1.022770e+01, -1.215929e-19, -6.740934e+01, 1.844871e-20
672, 8, 4.442855e+02, 3.327777e-41, 1.022770e+01, -1.215929e-19, -6.740934e+01, 1.844871e-20
673, 1, 4.443474e+02, 3.191540e-41, 1.010075e+01, -1.190862e-19, -6.699436e+01, 1.795465e-20
673, 2, 4.443474e+02, 3.191540e-41, 1.010075e+01, -1.190862e-19, -6.699436e+01, 1.795465e-20
673, 3, 4.443474e+02, 3.191540e-41, 1.010075e+01, -1.190862e-19, -6.699436e+01, 1.795465e-20
673, 4, 4.443474e+02, 3.191540e-41, 1.010075e+01, -1.190862e-19, -6.699436e+01, 1.795465e-20
673, 5, 4.443474e+02, 3.191540e-41, 1.010075e+01, -1.190862e-19, -6.699436e+01, 1.795465e-20
673, 6, 4.443474e+02, 3.191540e-41, 1.010075e+01, -1.190862e-19, -6.699436e+01, 1.795465e-20
673, 7, 4.443474e+02, 3.191540e-41, 1.010075e+01, -1.190862e-19, -6.699436e+01, 1.795465e-20
673, 8, 4.443474e+02, 3.191540e-41, 1.010075e+01, -1.190862e-19, -6.699436e+01, 1.795465e-20
674, 1, 4.444367e+02, 2.910217e-41, 9.919598e+00, -1.137281e-19, -6.639754e+01, 1.699064e-20
674, 2, 4.444367e+02, 2.910217e-41, 9.919598e+00, -1.137281e-19, -6.639754e+01, 1.699064e-20
674, 3, 4.444367e+02, 2.910217e-41, 9.919598e+00, -1.137281e-19, -6.639754e+01, 1.699064e-20
674, 4, 4.444367e+02, 2.910217e-41, 9.919598e+00, -1.137281e-19, -6.639754e+01, 1.699064e-20
674, 5, 4.444367e+02, 2.910217e-41, 9.919598e+00, -1.137281e-19, -6.639754e+01, 1.699064e-20
674, 6, 4.444367e+02, 2.910217e-41, 9.919598e+00, -1.137281e-19, -6.639754e+01, 1.699064e-20
674, 7, 4.444367e+02, 2.910217e-41, 9.919598e+00, -1.137281e-19, -6.639754e+01, 1.699064e-20
674, 8, 4.444367e+02, 2.910217e-41, 9.919598e+00, -1.137281e-19, -6.639754e+01, 1.699064e-20
675, 1, 4.445596e+02, 2.485876e-41, 9.668883e+00, -1.051247e-19, -6.556214e+01, 1.550343e-20
675, 2, 4.445596e+02, 2.485876e-41, 9.668883e+00, -1.051247e-19, -6.556214e+01, 1.550343e-20
675, 3, 4.445596e+02, 2.485876e-41, 9.668883e+00, -1.051247e-19, -6.556214e+01, 1.550343e-20
675, 4, 4.445596e+02, 2.485876e-41, 9.668883e+00, -1.051247e-19, -6.556214e+01, 1.550343e-20
675, 5, 4.445596e+02, 2.485876e-41, 9.668883e+00, -1.051247e-19, -6.556214e+01, 1.550343e-20
675, 6, 4.445596e+02, 2.485876e-41, 9.668883e+00, -1.051247e-19, -6.556214e+01, 1.550343e-20
675, 7, 4.445596e+02, 2.485876e-41, 9.668883e+00, -1.051247e-19, -6.556214e+01, 1.550343e-20
675, 8, 4.445596e+02, 2.485876e-41, 9.668883e+00, -1.051247e-19, -6.556214e+01, 1.550343e-20
676, 1, 4.446496e+02, 2.500893e-41, 9.489126e+00, -1.054524e-19, -6.495642e+01, 1.540496e-20
676, 2, 4.446496e+02, 2.500893e-41, 9.489126e+00, -1.054524e-19, -6.495642e+01, 1.540496e-20
676, 3, 4.446496e+02, 2.500893e-41, 9.489126e+00, -1.054524e-19, -6.495642e+01, 1.540496e-20
676, 4, 4.446496e+02, 2.500893e-41, 9.489126e+00, -1.054524e-19, -6.495642e+01, 1.540496e-20
676, 5, 4.446496e+02, 2.500893e-41, 9.489126e+00, -1.054524e-19, -6.495642e+01, 1.540496e-20
676, 6, 4.446496e+02, 2.500893e-41, 9.489126e+00, -1.054524e-19, -6.495642e+01, 1.540496e-20
676, 7, 4.446496e+02, 2.500893e-41, 9.489126e+00, -1.054524e-19, -6.495642e+01, 1.540496e-20
676, 8, 4.446496e+02, 2.500893e-41, 9.489126e+00, -1.054524e-19, -6.495642e+01, 1.540496e-20
677, 1, 4.447092e+02, 2.408582e-41, 9.366800e+00, -1.034949e-19, -6.454070e+01, 1.502022e-20
677, 2, 4.447092e+02, 2.408582e-41, 9.366800e+00, -1.034949e-19, -6.454070e+01, 1.502022e-20
677, 3, 4.447092e+02, 2.408582e-41, 9.366800e+00, -1.034949e-19, -6.454070e+01, 1.502022e-20
677, 4, 4.447092e+02, 2.408582e-41, 9.366800e+00, -1.034949e-19, -6.454070e+01, 1.502022e-20
677, 5, 4.447092e+02, 2.408582e-41, 9.366800e+00, -1.034949e-19, -6.454070e+01, 1.502022e-20
677, 6, 4.447092e+02, 2.408582e-41, 9.366800e+00, -1.034949e-19, -6.454070e+01, 1.502022e-20
677, 7, 4.447092e+02, 2.408582e-41, 9.366800e+00, -1.034949e-19, -6.454070e+01, 1.502022e-20
677, 8, 4.447092e+02, 2.408582e-41, 9.366800e+00, -1.034949e-19, -6.454070e+01, 1.502022e-20
678, 1, 4.447962e+02, 1.900014e-41, 9.192296e+00, -9.193036e-20, -6.394293e+01, 1.321571e-20
678, 2, 4.447962e+02, 1.900014e-41, 9.192296e+00, -9.193036e-20, -6.394293e+01, 1.321571e-20
678, 3, 4.447962e+02, 1.900014e-41, 9.192296e+00, -9.193036e-20, -6.394293e+01, 1.321571e-20
678, 4, 4.447962e+02, 1.900014e-41, 9.192296e+00, -9.193036e-20, -6.394293e+01, 1.321571e-20
678, 5, 4.447962e+02, 1.900014e-41, 9.192296e+00, -9.193036e-20, -6.394293e+01, 1.321571e-20
678, 6, 4.447962e+02, 1.900014e-41, 9.192296e+00, -9.193036e-20, -6.394293e+01, 1.321571e-20
678, 7, 4.447962e+02, 1.900014e-41, 9.192296e+00, -9.193036e-20, -6.394293e+01, 1.321571e-20
678, 8, 4.447962e+02, 1.900014e-41, 9.192296e+00, -9.193036e-20, -6.394293e+01, 1.321571e-20
679, 1, 4.449165e+02, 1.309407e-41, 8.950925e+00, -7.632671e-20, -6.310637e+01, 1.082608e-20
679, 2, 4.449165e+02, 1.309407e-41, 8.950925e+00, -7.632671e-20, -6.310637e+01, 1.082608e-20
679, 3, 4.449165e+02, 1.309407e-41, 8.950925e+00, -7.632671e-20, -6.310637e+01, 1.082608e-20
679, 4, 4.449165e+02, 1.309407e-41, 8.950925e+00, -7.632671e-20, -6.310637e+01, 1.082608e-20
679, 5, 4.449165e+02, 1.309407e-41, 8.950925e+00, -7.632671e-20, -6.310637e+01, 1.082608e-20
679, 6, 4.449165e+02, 1.309407e-41, 8.950925e+00, -7.632671e-20, -6.310637e+01, 1.082608e-20
679, 7, 4.449165e+02, 1.309407e-41, 8.950925e+00, -7.632671e-20, -6.310637e+01, 1.082608e-20
679, 8, 4.449165e+02, 1.309407e-41, 8.950925e+00, -7.632671e-20, -6.310637e+01, 1.082608e-20
680, 1, 4.450021e+02, 1.742309e-41, 8.777920e+00, -8.805289e-20, -6.249954e+01, 1.236683e-20
680, 2, 4.450021e+02, 1.742309e-41, 8.777920e+00, -8.805289e-20, -6.249954e+01, 1.236683e-20
680, 3, 4.450021e+02, 1.742309e-41, 8.777920e+00, -8.805289e-20, -6.249954e+01, 1.236683e-20
680, 4, 4.450021e+02, 1.742309e-41, 8.777920e+00, -8.805289e-20, -6.249954e+01, 1.236683e-20
680, 5, 4.450021e+02, 1.742309e-41, 8.777920e+00, -8.805289e-20, -6.249954e+01, 1.236683e-20
680, 6, 4.450021e+02, 1.742309e-41, 8.777920e+00, -8.805289e-20, -6.249954e+01, 1.236683e-20
680, 7, 4.450021e+02, 1.742309e-41, 8.777920e+00, -8.805289e-20, -6.249954e+01, 1.236683e-20
680, 8, 4.450021e+02, 1.742309e-41, 8.777920e+00, -8.805289e-20, -6.249954e+01, 1.236683e-20
681, 1, 4.450592e+02, 1.641327e-41, 8.660223e+00, -8.546857e-20, -6.208311e+01, 1.192236e-20
681, 2, 4.450592e+02, 1.641327e-41, 8.660223e+00, -8.546857e-20, -6.208311e+01, 1.192236e-20
681, 3, 4.450592e+02, 1.641327e-41, 8.660223e+00, -8.546857e-20, -6.208311e+01, 1.192236e-20
681, 4, 4.450592e+02, 1.641327e-41, 8.660223e+00, -8.546857e-20, -6.208311e+01, 1.192236e-20
681, 5, 4.450592e+02, 1.641327e-41, 8.660223e+00, -8.546857e-20, -6.208311e+01, 1.192236e-20
681, 6, 4.450592e+02, 1.641327e-41, 8.660223e+00, -8.546857e-20, -6.208311e+01, 1.192236e-20
681, 7, 4.450592e+02, 1.641327e-41, 8.660223e+00, -8.546857e-20, -6.208311e+01, 1.192236e-20
681, 8, 4.450592e+02, 1.641327e-41, 8.660223e+00, -8.546857e-20, -6.208311e+01, 1.192236e-20
682, 1, 4.451419e+02, 9.403197e-42, 8.492337e+00, -6.469743e-20, -6.148410e+01, 8.936169e-21
682, 2, 4.451419e+02, 9.403197e-42, 8.492337e+00, -6.469743e-20, -6.148410e+01, 8.936169e-21
682, 3, 4.451419e+02, 9.403197e-42, 8.492337e+00, -6.469743e-20, -6.148410e+01, 8.936169e-21
682, 4, 4.451419e+02, 9.403197e-42, 8.492337e+00, -6.469743e-20, -6.148410e+01, 8.936169e-21
682, 5, 4.451419e+02, 9.403197e-42, 8.492337e+00, -6.469743e-20, -6.148410e+01, 8.936169e-21
682, 6, 4.451419e+02, 9.403197e-42, 8.492337e+00, -6.469743e-20, -6.148410e+01, 8.936169e-21
682, 7, 4.451419e+02, 9.403197e-42, 8.492337e+00, -6.469743e-20, -6.148410e+01, 8.936169e-21
682, 8, 4.451419e+02, 9.403197e-42, 8.492337e+00, -6.469743e-20, -6.148410e+01, 8.936169e-21
683, 1, 4.452574e+02, 7.674008e-42, 8.260282e+00, -5.845433e-20, -6.064611e+01, 7.961750e-21
683, 2, 4.452574e+02, 7.674008e-42, 8.260282e+00, -5.845433e-20, -6.064611e+01, 7.961750e-21
683, 3, 4.452574e+02, 7.674008e-42, 8.260282e+00, -5.845433e-20, -6.064611e+01, 7.961750e-21
683, 4, 4.452574e+02, 7.674008e-42, 8.260282e+00, -5.845433e-20, -6.064611e+01, 7.961750e-21
683, 5, 4.452574e+02, 7.674008e-42, 8.260282e+00, -5.845433e-20, -6.064611e+01, 7.961750e-21
683, 6, 4.452574e+02, 7.674008e-42, 8.260282e+00, -5.845433e-20, -6.064611e+01, 7.961750e-21
683, 7, 4.452574e+02, 7.674008e-42, 8.260282e+00, -5.845433e-20, -6.064611e+01, 7.961750e-21
683, 8, 4.452574e+02, 7.674008e-42, 8.260282e+00, -5.845433e-20, -6.064611e+01, 7.961750e-21
684, 1, 4.453406e+02, 1.054165e-41, 8.094087e+00, -6.851734e-20, -6.003853e+01, 9.237156e-21
684, 2, 4.453406e+02, 1.054165e-41, 8.094087e+00, -6.851734e-20, -6.003853e+01, 9.237156e-21
684, 3, 4.453406e+02, 1.054165e-41, 8.094087e+00, -6.851734e-20, -6.003853e+01, 9.237156e-21
684, 4, 4.453406e+02, 1.054165e-41, 8.094087e+00, -6.851734e-20, -6.003853e+01, 9.237156e-21
684, 5, 4.453406e+02, 1.054165e-41, 8.094087e+00, -6.851734e-20, -6.003853e+01, 9.237156e-21
684, 6, 4.453406e+02, 1.054165e-41, 8.094087e+00, -6.851734e-20, -6.003853e+01, 9.237156e-21
684, 7, 4.453406e+02, 1.054165e-41, 8.094087e+00, -6.851734e-20, -6.003853e+01, 9.237156e-21
684, 8, 4.453406e+02, 1.054165e-41, 8.094087e+00, -6.851734e-20, -6.003853e+01, 9.237156e-21
685, 1, 4.457829e+02, 3.609365e-42, 7.203272e+00, -4.011226e-20, -5.666653e+01, 5.098945e-21
685, 2, 4.457829e+02, 3.609365e-42, 7.203272e+00, -4.011226e-20, -5.666653e+01, 5.098945e-21
685, 3, 4.457829e+02, 3.609365e-42, 7.203272e+00, -4.011226e-20, -5.666653e+01, 5.098945e-21
685, 4, 4.457829e+02, 3.609365e-42, 7.203272e+00, -4.011226e-20, -5.666653e+01, 5.098945e-21
685, 5, 4.457829e+02, 3.609365e-42, 7.203272e+00, -4.011226e-20, -5.666653e+01, 5.098945e-21
685, 6, 4.457829e+02, 3.609365e-42, 7.203272e+00, -4.011226e-20, -5.666653e+01, 5.098945e-21
685, 7, 4.457829e+02, 3.609365e-42, 7.203272e+00, -4.011226e-20, -5.666653e+01, 5.098945e-21
685, 8, 4.457829e+02, 3.609365e-42, 7.203272e+00, -4.011226e-20, -5.666653e+01, 5.098945e-21
686, 1, 4.458577e+02, 1.261142e-42, 7.050015e+00, 2.371265e-20, -5.606517e+01, -2.981790e-21
686, 2, 4.458577e+02, 1.261142e-42, 7.050015e+00, 2.371265e-20, -5.606517e+01, -2.981790e-21
686, 3, 4.458577e+02, 1.261142e-42, 7.050015e+00, 2.371265e-20, -5.606517e+01, -2.981790e-21
686, 4, 4.458577e+02, 1.261142e-42, 7.050015e+00, 2.371265e-20, -5.606517e+01, -2.981790e-21
686, 5, 4.458577e+02, 1.261142e-42, 7.050015e+00, 2.371265e-20, -5.606517e+01, -2.981790e-21
686, 6, 4.458577e+02, 1.261142e-42, 7.050015e+00, 2.371265e-20, -5.606517e+01, -2.981790e-21
686, 7, 4.458577e+02, 1.261142e-42, 7.050015e+00, 2.371265e-20, -5.606517e+01, -2.981790e-21
686, 8, 4.458577e+02, 1.261142e-42, 7.050015e+00, 2.371265e-20, -5.606517e+01, -2.981790e-21
687, 1, 4.459616e+02, 2.313090e-42, 6.838490e+00, 3.211774e-20, -5.522412e+01, -3.977190e-21
687, 2, 4.459616e+02, 2.313090e-42, 6.838490e+00, 3.211774e-20, -5.522412e+01, -3.977190e-21
687, 3, 4.459616e+02, 2.313090e-42, 6.838490e+00, 3.211774e-20, -5.522412e+01, -3.977190e-21
687, 4, 4.459616e+02, 2.313090e-42, 6.838490e+00, 3.211774e-20, -5.522412e+01, -3.977190e-21
687, 5, 4.459616e+02, 2.313090e-42, 6.838490e+00, 3.211774e-20, -5.522412e+01, -3.977190e-21
687, 6, 4.459616e+02, 2.313090e-42, 6.838490e+00, 3.211774e-20, -5.522412e+01, -3.977190e-21
687, 7, 4.459616e+02, 2.313090e-42, 6.838490e+00, 3.211774e-20, -5.522412e+01, -3.977190e-21
687, 8, 4.459616e+02, 2.313090e-42, 6.838490e+00, 3.211774e-20, -5.522412e+01, -3.977190e-21
688, 1, 4.460388e+02, 8.669251e-43, 6.687285e+00, -1.966424e-20, -5.461491e+01, 2.407774e-21
688, 2, 4.460388e+02, 8.669251e-43, 6.687285e+00, -1.966424e-20, -5.461491e+01, 2.407774e-21
688, 3, 4.460388e+02, 8.669251e-43, 6.687285e+00, -1.966424e-20, -5.461491e+01, 2.407774e-21
688, 4, 4.460388e+02, 8.669251e-43, 6.687285e+00, -1.966424e-20, -5.461491e+01, 2.407774e-21
688, 5, 4.460388e+02, 8.669251e-43, 6.687285e+00, -1.966424e-20, -5.461491e+01, 2.407774e-21
688, 6, 4.460388e+02, 8.669251e-43, 6.687285e+00, -1.966424e-20, -5.461491e+01, 2.407774e-21
688, 7, 4.460388e+02, 8.669251e-43, 6.687285e+00, -1.966424e-20, -5.461491e+01, 2.407774e-21
688, 8, 4.460388e+02, 8.669251e-43, 6.687285e+00, -1.966424e-20, -5.461491e+01, 2.407774e-21
689, 1, 4.460878e+02, 5.043347e-43, 6.584449e+00, -1.499925e-20, -5.419633e+01, 1.822297e-21
689, 2, 4.460878e+02, 5.043347e-43, 6.584449e+00, -1.499925e-20, -5.419633e+01, 1.822297e-21
689, 3, 4.460878e+02, 5.043347e-43, 6.584449e+00, -1.499925e-20, -5.419633e+01, 1.822297e-21
689, 4, 4.460878e+02, 5.043347e-43, 6.584449e+00, -1.499925e-20, -5.419633e+01, 1.822297e-21
689, 5, 4.460878e+02, 5.043347e-43, 6.584449e+00, -1.499925e-20, -5.419633e+01, 1.822297e-21
689, 6, 4.460878e+02, 5.043347e-43, 6.584449e+00, -1.499925e-20, -5.419633e+01, 1.822297e-21
689, 7, 4.460878e+02, 5.043347e-43, 6.584449e+00, -1.499925e-20, -5.419633e+01, 1.822297e-21
689, 8, 4.460878e+02, 5.043347e-43, 6.584449e+00, -1.499925e-20, -5.419633e+01, 1.822297e-21
690, 1, 4.461626e+02, 5.815784e-42, 6.437920e+00, 5.093904e-20, -5.359440e+01, -6.118950e-21
690, 2, 4.461626e+02, 5.815784e-42, 6.437920e+00, 5.093904e-20, -5.359440e+01, -6.118950e-21
690, 3, 4.461626e+02, 5.815784e-42, 6.437920e+00, 5.093904e-20, -5.359440e+01, -6.118950e-21
690, 4, 4.461626e+02, 5.815784e-42, 6.437920e+00, 5.093904e-20, -5.359440e+01, -6.118950e-21
690, 5, 4.461626e+02, 5.815784e-42, 6.437920e+00, 5.093904e-20, -5.359440e+01, -6.118950e-21
690, 6, 4.461626e+02, 5.815784e-42, 6.437920e+00, 5.093904e-20, -5.359440e+01, -6.118950e-21
690, 7, 4.461626e+02, 5.815784e-42, 6.437920e+00, 5.093904e-20, -5.359440e+01, -6.118950e-21
690, 8, 4.461626e+02, 5.815784e-42, 6.437920e+00, 5.093904e-20, -5.359440e+01, -6.118950e-21
691, 1, 4.462616e+02, 7.828335e-42, 6.235768e+00, 5.910572e-20, -5.275210e+01, -6.986822e-21
691, 2, 4.462616e+02, 7.828335e-42, 6.235768e+00, 5.910572e-20, -5.275210e+01, -6.986822e-21
691, 3, 4.462616e+02, 7.828335e-42, 6.235768e+00, 5.910572e-20, -5.275210e+01, -6.986822e-21
691, 4, 4.462616e+02, 7.828335e-42, 6.235768e+00, 5.910572e-20, -5.275210e+01, -6.986822e-21
691, 5, 4.462616e+02, 7.828335e-42, 6.235768e+00, 5.910572e-20, -5.275210e+01, -6.986822e-21
691, 6, 4.462616e+02, 7.828335e-42, 6.235768e+00, 5.910572e-20, -5.275210e+01, -6.986822e-21
691, 7, 4.462616e+02, 7.828335e-42, 6.235768e+00, 5.910572e-20, -5.275210e+01, -6.986822e-21
691, 8, 4.462616e+02, 7.828335e-42, 6.235768e+00, 5.910572e-20, -5.275210e+01, -6.986822e-21
692, 1, 4.463343e+02, 6.736685e-44, 6.091371e+00, 5.483442e-21, -5.214200e+01, -6.405907e-22
692, 2, 4.463343e+02, 6.736685e-44, 6.091371e+00, 5.483442e-21, -5.214200e+01, -6.405907e-22
692, 3, 4.463343e+02, 6.736685e-44, 6.091371e+00, 5.483442e-21, -5.214200e+01, -6.405907e-22
692, 4, 4.463343e+02, 6.736685e-44, 6.091371e+00, 5.483442e-21, -5.214200e+01, -6.405907e-22
692, 5, 4.463343e+02, 6.736685e-44, 6.091371e+00, 5.483442e-21, -5.214200e+01, -6.405907e-22
692, 6, 4.463343e+02, 6.736685e-44, 6.091371e+00, 5.483442e-21, -5.214200e+01, -6.405907e-22
692, 7, 4.463343e+02, 6.736685e-44, 6.091371e+00, 5.483442e-21, -5.214200e+01, -6.405907e-22
692, 8, 4.463343e+02, 6.736685e-44, 6.091371e+00, 5.483442e-21, -5.214200e+01, -6.405907e-22
693, 1, 4.463831e+02, 2.691873e-43, 5.993231e+00, 1.096178e-20, -5.172308e+01, -1.270158e-21
693, 2, 4.463831e+02, 2.691873e-43, 5.993231e+00, 1.096178e-20, -5.172308e+01, -1.270158e-21
693, 3, 4.463831e+02, 2.691873e-43, 5.993231e+00, 1.096178e-20, -5.172308e+01, -1.270158e-21
693, 4, 4.463831e+02, 2.691873e-43, 5.993231e+00, 1.096178e-20, -5.172308e+01, -1.270158e-21
693, 5, 4.463831e+02, 2.691873e-43, 5.993231e+00, 1.096178e-20, -5.172308e+01, -1.270158e-21
693, 6, 4.463831e+02, 2.691873e-43, 5.993231e+00, 1.096178e-20, -5.172308e+01, -1.270158e-21
693, 7, 4.463831e+02, 2.691873e-43, 5.993231e+00, 1.096178e-20, -5.172308e+01, -1.270158e-21
693, 8, 4.463831e+02, 2.691873e-43, 5.993231e+00, 1.096178e-20, -5.172308e+01, -1.270158e-21
694, 1, 4.464534e+02, 1.371273e-41, 5.853374e+00, 7.824381e-20, -5.112005e+01, -8.959114e-21
694, 2, 4.464534e+02, 1.371273e-41, 5.853374e+00, 7.824381e-20, -5.112005e+01, -8.959114e-21
694, 3, 4.464534e+02, 1.371273e-41, 5.853374e+00, 7.824381e-20, -5.112005e+01, -8.959114e-21
694, 4, 4.464534e+02, 1.371273e-41, 5.853374e+00, 7.824381e-20, -5.112005e+01, -8.959114e-21
694, 5, 4.464534e+02, 1.371273e-41, 5.853374e+00, 7.824381e-20, -5.112005e+01, -8.959114e-21
694, 6, 4.464534e+02, 1.371273e-41, 5.853374e+00, 7.824381e-20, -5.112005e+01, -8.959114e-21
694, 7, 4.464534e+02, 1.371273e-41, 5.853374e+00, 7.824381e-20, -5.112005e+01, -8.959114e-21
694, 8, 4.464534e+02, 1.371273e-41, 5.853374e+00, 7.824381e-20, -5.112005e+01, -8.959114e-21
695, 1, 4.465475e+02, 1.758328e-41, 5.660611e+00, 8.861021e-20, -5.027656e+01, -9.976577e-21
695, 2, 4.465475e+02, 1.758328e-41, 5.660611e+00, 8.861021e-20, -5.027656e+01, -9.976577e-21
695, 3, 4.465475e+02, 1.758328e-41, 5.660611e+00, 8.861021e-20, -5.027656e+01, -9.976577e-21
695, 4, 4.465475e+02, 1.758328e-41, 5.660611e+00, 8.861021e-20, -5.027656e+01, -9.976577e-21
695, 5, 4.465475e+02, 1.758328e-41, 5.660611e+00, 8.861021e-20, -5.027656e+01, -9.976577e-21
695, 6, 4.465475e+02, 1.758328e-41, 5.660611e+00, 8.861021e-20, -5.027656e+01, -9.976577e-21
695, 7, 4.465475e+02, 1.758328e-41, 5.660611e+00, 8.861021e-20, -5.027656e+01, -9.976577e-21
695, 8, 4.465475e+02, 1.758328e-41, 5.660611e+00, 8.861021e-20, -5.027656e+01, -9.976577e-21
696, 1, 4.466178e+02, 2.546576e-42, 5.523063e+00, 3.372457e-20, -4.966587e+01, -3.750320e-21
696, 2, 4.466178e+02, 2.546576e-42, 5.523063e+00, 3.372457e-20, -4.966587e+01, -3.750320e-21
696, 3, 4.466178e+02, 2.546576e-42, 5.523063e+00, 3.372457e-20, -4.966587e+01, -3.750320e-21
696, 4, 4.466178e+02, 2.546576e-42, 5.523063e+00, 3.372457e-20, -4.966587e+01, -3.750320e-21
696, 5, 4.466178e+02, 2.546576e-42, 5.523063e+00, 3.372457e-20, -4.966587e+01, -3.750320e-21
696, 6, 4.466178e+02, 2.546576e-42, 5.523063e+00, 3.372457e-20, -4.966587e+01, -3.750320e-21
696, 7, 4.466178e+02, 2.546576e-42, 5.523063e+00, 3.372457e-20, -4.966587e+01, -3.750320e-21
696, 8, 4.466178e+02, 2.546576e-42, 5.523063e+00, 3.372457e-20, -4.966587e+01, -3.750320e-21
697, 1, 4.466620e+02, 3.211669e-42, 5.429566e+00, 3.787520e-20, -4.924613e+01, -4.175880e-21
697, 2, 4.466620e+02, 3.211669e-42, 5.429566e+00, 3.787520e-20, -4.924613e+01, -4.175880e-21
697, 3, 4.466620e+02, 3.211669e-42, 5.429566e+00, 3.787520e-20, -4.924613e+01, -4.175880e-21
697, 4, 4.466620e+02, 3.211669e-42, 5.429566e+00, 3.787520e-20, -4.924613e+01, -4.175880e-21
697, 5, 4.466620e+02, 3.211669e-42, 5.429566e+00, 3.787520e-20, -4.924613e+01, -4.175880e-21
697, 6, 4.466620e+02, 3.211669e-42, 5.429566e+00, 3.787520e-20, -4.924613e+01, -4.175880e-21
697, 7, 4.466620e+02, 3.211669e-42, 5.429566e+00, 3.787520e-20, -4.924613e+01, -4.175880e-21
697, 8, 4.466620e+02, 3.211669e-42, 5.429566e+00, 3.787520e-20, -4.924613e+01, -4.175880e-21
698, 1, 4.467428e+02, 1.924314e-40, 5.265746e+00, 2.932019e-19, -4.850190e+01, -3.183229e-20
698, 2, 4.467428e+02, 1.924314e-40, 5.265746e+00, 2.932019e-19, -4.850190e+01, -3.183229e-20
698, 3, 4.467428e+02, 1.924314e-40, 5.265746e+00, 2.932019e-19, -4.850190e+01, -3.183229e-20
698, 4, 4.467428e+02, 1.924314e-40, 5.265746e+00, 2.932019e-19, -4.850190e+01, -3.183229e-20
698, 5, 4.467428e+02, 1.924314e-40, 5.265746e+00, 2.932019e-19, -4.850190e+01, -3.183229e-20
698, 6, 4.467428e+02, 1.924314e-40, 5.265746e+00, 2.932019e-19, -4.850190e+01, -3.183229e-20
698, 7, 4.467428e+02, 1.924314e-40, 5.265746e+00, 2.932019e-19, -4.850190e+01, -3.183229e-20
698, 8, 4.467428e+02, 1.924314e-40, 5.265746e+00, 2.932019e-19, -4.850190e+01, -3.183229e-20
699, 1, 4.468359e+02, 2.110851e-40, 5.082969e+00, 3.071163e-19, -4.765767e+01, -3.275575e-20
699, 2, 4.468359e+02, 2.110851e-40, 5.082969e+00, 3.071163e-19, -4.765767e+01, -3.275575e-20
699, 3, 4.468359e+02, 2.110851e-40, 5.082969e+00, 3.071163e-19, -4.765767e+01, -3.275575e-20
699, 4, 4.468359e+02, 2.110851e-40, 5.082969e+00, 3.071163e-19, -4.765767e+01, -3.275575e-20
699, 5, 4.468359e+02, 2.110851e-40, 5.082969e+00, 3.071163e-19, -4.765767e+01, -3.275575e-20
699, 6, 4.468359e+02, 2.110851e-40, 5.082969e+00, 3.071163e-19, -4.765767e+01, -3.275575e-20
699, 7, 4.468359e+02, 2.110851e-40, 5.082969e+00, 3.071163e-19, -4.765767e+01, -3.275575e-20
699, 8, 4.468359e+02, 2.110851e-40, 5.082969e+00, 3.071163e-19, -4.765767e+01, -3.275575e-20
700, 1, 4.469012e+02, 9.312470e-42, 4.952636e+00, 6.451166e-20, -4.704614e+01, -6.791264e-21
700, 2, 4.469012e+02, 9.312470e-42, 4.952636e+00, 6.451166e-20, -4.704614e+01, -6.791264e-21
700, 3, 4.469012e+02, 9.312470e-42, 4.952636e+00, 6.451166e-20, -4.704614e+01, -6.791264e-21
700, 4, 4.469012e+02, 9.312470e-42, 4.952636e+00, 6.451166e-20, -4.704614e+01, -6.791264e-21
700, 5, 4.469012e+02, 9.312470e-42, 4.952636e+00, 6.451166e-20, -4.704614e+01, -6.791264e-21
700, 6, 4.469012e+02, 9.312470e-42, 4.952636e+00, 6.451166e-20, -4.704614e+01, -6.791264e-21
700, 7, 4.469012e+02, 9.312470e-42, 4.952636e+00, 6.451166e-20, -4.704614e+01, -6.791264e-21
700, 8, 4.469012e+02, 9.312470e-42, 4.952636e+00, 6.451166e-20, -4.704614e+01, -6.791264e-21
701, 1, 4.469449e+02, 1.066819e-41, 4.864108e+00, 6.905138e-20, -4.662605e+01, -7.203556e-21
701, 2, 4.469449e+02, 1.066819e-41, 4.864108e+00, 6.905138e-20, -4.662605e+01, -7.203556e-21
701, 3, 4.469449e+02, 1.066819e-41, 4.864108e+00, 6.905138e-20, -4.662605e+01, -7.203556e-21
701, 4, 4.469449e+02, 1.066819e-41, 4.864108e+00, 6.905138e-20, -4.662605e+01, -7.203556e-21
701, 5, 4.469449e+02, 1.066819e-41, 4.864108e+00, 6.905138e-20, -4.662605e+01, -7.203556e-21
701, 6, 4.469449e+02, 1.066819e-41, 4.864108e+00, 6.905138e-20, -4.662605e+01, -7.203556e-21
701, 7, 4.469449e+02, 1.066819e-41, 4.864108e+00, 6.905138e-20, -4.662605e+01, -7.203556e-21
701, 8, 4.469449e+02, 1.066819e-41, 4.864108e+00, 6.905138e-20, -4.662605e+01, -7.203556e-21
702, 1, 4.470082e+02, 2.495227e-40, 4.738041e+00, 3.339741e-19, -4.602112e+01, -3.438384e-20
702, 2, 4.470082e+02, 2.495227e-40, 4.738041e+00, 3.339741e-19, -4.602112e+01, -3.438384e-20
702, 3, 4.470082e+02, 2.495227e-40, 4.738041e+00, 3.339741e-19, -4.602112e+01, -3.438384e-20
702, 4, 4.470082e+02, 2.495227e-40, 4.738041e+00, 3.339741e-19, -4.602112e+01, -3.438384e-20
702, 5, 4.470082e+02, 2.495227e-40, 4.738041e+00, 3.339741e-19, -4.602112e+01, -3.438384e-20
702, 6, 4.470082e+02, 2.495227e-40, 4.738041e+00, 3.339741e-19, -4.602112e+01, -3.438384e-20
702, 7, 4.470082e+02, 2.495227e-40, 4.738041e+00, 3.339741e-19, -4.602112e+01, -3.438384e-20
702, 8, 4.470082e+02, 2.495227e-40, 4.738041e+00, 3.339741e-19, -4.602112e+01, -3.438384e-20
703, 1, 4.470919e+02, 2.713001e-40, 4.564634e+00, 3.482759e-19, -4.517533e+01, -3.519070e-20
703, 2, 4.470919e+02, 2.713001e-40, 4.564634e+00, 3.482759e-19, -4.517533e+01, -3.519070e-20
703, 3, 4.470919e+02, 2.713001e-40, 4.564634e+00, 3.482759e-19, -4.517533e+01, -3.519070e-20
703, 4, 4.470919e+02, 2.713001e-40, 4.564634e+00, 3.482759e-19, -4.517533e+01, -3.519070e-20
703, 5, 4.470919e+02, 2.713001e-40, 4.564634e+00, 3.482759e-19, -4.517533e+01, -3.519070e-20
703, 6, 4.470919e+02, 2.713001e-40, 4.564634e+00, 3.482759e-19, -4.517533e+01, -3.519070e-20
703, 7, 4.470919e+02, 2.713001e-40, 4.564634e+00, 3.482759e-19, -4.517533e+01, -3.519070e-20
703, 8, 4.470919e+02, 2.713001e-40, 4.564634e+00, 3.482759e-19, -4.517533e+01, -3.519070e-20
704, 1, 4.471548e+02, 2.049949e-41, 4.441165e+00, 9.574156e-20, -4.456331e+01, -9.541572e-21
704, 2, 4.471548e+02, 2.049949e-41, 4.441165e+00, 9.574156e-20, -4.456331e+01, -9.541572e-21
704, 3, 4.471548e+02, 2.049949e-41, 4.441165e+00, 9.574156e-20, -4.456331e+01, -9.541572e-21
704, 4, 4.471548e+02, 2.049949e-41, 4.441165e+00, 9.574156e-20, -4.456331e+01, -9.541572e-21
704, 5, 4.471548e+02, 2.049949e-41, 4.441165e+00, 9.574156e-20, -4.456331e+01, -9.541572e-21
704, 6, 4.471548e+02, 2.049949e-41, 4.441165e+00, 9.574156e-20, -4.456331e+01, -9.541572e-21
704, 7, 4.471548e+02, 2.049949e-41, 4.441165e+00, 9.574156e-20, -4.456331e+01, -9.541572e-21
704, 8, 4.471548e+02, 2.049949e-41, 4.441165e+00, 9.574156e-20, -4.456331e+01, -9.541572e-21
705, 1, 4.471961e+02, 2.331596e-41, 4.357323e+00, 1.021117e-19, -4.414270e+01, -1.007944e-20
705, 2, 4.471961e+02, 2.331596e-41, 4.357323e+00, 1.021117e-19, -4.414270e+01, -1.007944e-20
705, 3, 4.471961e+02, 2.331596e-41, 4.357323e+00, 1.021117e-19, -4.414270e+01, -1.007944e-20
705, 4, 4.471961e+02, 2.331596e-41, 4.357323e+00, 1.021117e-19, -4.414270e+01, -1.007944e-20
705, 5, 4.471961e+02, 2.331596e-41, 4.357323e+00, 1.021117e-19, -4.414270e+01, -1.007944e-20
705, 6, 4.471961e+02, 2.331596e-41, 4.357323e+00, 1.021117e-19, -4.414270e+01, -1.007944e-20
705, 7, 4.471961e+02, 2.331596e-41, 4.357323e+00, 1.021117e-19, -4.414270e+01, -1.007944e-20
705, 8, 4.471961e+02, 2.331596e-41, 4.357323e+00, 1.021117e-19, -4.414270e+01, -1.007944e-20
706, 1, 4.472549e+02, 3.101080e-40, 4.237970e+00, 3.724209e-19, -4.353680e+01, -3.625228e-20
706, 2, 4.472549e+02, 3.101080e-40, 4.237970e+00, 3.724209e-19, -4.353680e+01, -3.625228e-20
706, 3, 4.472549e+02, 3.101080e-40, 4.237970e+00, 3.724209e-19, -4.353680e+01, -3.625228e-20
706, 4, 4.472549e+02, 3.101080e-40, 4.237970e+00, 3.724209e-19, -4.353680e+01, -3.625228e-20
706, 5, 4.472549e+02, 3.101080e-40, 4.237970e+00, 3.724209e-19, -4.353680e+01, -3.625228e-20
706, 6, 4.472549e+02, 3.101080e-40, 4.237970e+00, 3.724209e-19, -4.353680e+01, -3.625228e-20
706, 7, 4.472549e+02, 3.101080e-40, 4.237970e+00, 3.724209e-19, -4.353680e+01, -3.625228e-20
706, 8, 4.472549e+02, 3.101080e-40, 4.237970e+00, 3.724209e-19, -4.353680e+01, -3.625228e-20
707, 1, 4.473381e+02, 3.393610e-40, 4.074039e+00, 3.896269e-19, -4.269043e+01, -3.718292e-20
707, 2, 4.473381e+02, 3.393610e-40, 4.074039e+00, 3.896269e-19, -4.269043e+01, -3.718292e-20
707, 3, 4.473381e+02, 3.393610e-40, 4.074039e+00, 3.896269e-19, -4.269043e+01, -3.718292e-20
707, 4, 4.473381e+02, 3.393610e-40, 4.074039e+00, 3.896269e-19, -4.269043e+01, -3.718292e-20
707, 5, 4.473381e+02, 3.393610e-40, 4.074039e+00, 3.896269e-19, -4.269043e+01, -3.718292e-20
707, 6, 4.473381e+02, 3.393610e-40, 4.074039e+00, 3.896269e-19, -4.269043e+01, -3.718292e-20
707, 7, 4.473381e+02, 3.393610e-40, 4.074039e+00, 3.896269e-19, -4.269043e+01, -3.718292e-20
707, 8, 4.473381e+02, 3.393610e-40, 4.074039e+00, 3.896269e-19, -4.269043e+01, -3.718292e-20
708, 1, 4.473964e+02, 3.751604e-41, 3.957418e+00, 1.295552e-19, -4.207772e+01, -1.218469e-20
708, 2, 4.473964e+02, 3.751604e-41, 3.957418e+00, 1.295552e-19, -4.207772e+01, -1.218469e-20
708, 3, 4.473964e+02, 3.751604e-41, 3.957418e+00, 1.295552e-19, -4.207772e+01, -1.218469e-20
708, 4, 4.473964e+02, 3.751604e-41, 3.957418e+00, 1.295552e-19, -4.207772e+01, -1.218469e-20
708, 5, 4.473964e+02, 3.751604e-41, 3.957418e+00, 1.295552e-19, -4.207772e+01, -1.218469e-20
708, 6, 4.473964e+02, 3.751604e-41, 3.957418e+00, 1.295552e-19, -4.207772e+01, -1.218469e-20
708, 7, 4.473964e+02, 3.751604e-41, 3.957418e+00, 1.295552e-19, -4.207772e+01, -1.218469e-20
708, 8, 4.473964e+02, 3.751604e-41, 3.957418e+00, 1.295552e-19, -4.207772e+01, -1.218469e-20
709, 1, 4.474352e+02, 4.082418e-41, 3.878270e+00, 1.351524e-19, -4.165662e+01, -1.258281e-20
709, 2, 4.474352e+02, 4.082418e-41, 3.878270e+00, 1.351524e-19, -4.165662e+01, -1.258281e-20
709, 3, 4.474352e+02, 4.082418e-41, 3.878270e+00, 1.351524e-19, -4.165662e+01, -1.258281e-20
709, 4, 4.474352e+02, 4.082418e-41, 3.878270e+00, 1.351524e-19, -4.165662e+01, -1.258281e-20
709, 5, 4.474352e+02, 4.082418e-41, 3.878270e+00, 1.351524e-19, -4.165662e+01, -1.258281e-20
709, 6, 4.474352e+02, 4.082418e-41, 3.878270e+00, 1.351524e-19, -4.165662e+01, -1.258281e-20
709, 7, 4.474352e+02, 4.082418e-41, 3.878270e+00, 1.351524e-19, -4.165662e+01, -1.258281e-20
709, 8, 4.474352e+02, 4.082418e-41, 3.878270e+00, 1.351524e-19, -4.165662e+01, -1.258281e-20
710, 1, 4.474742e+02, 4.427504e-41, 3.798910e+00, 1.407549e-19, -4.123002e+01, -1.296908e-20
710, 2, 4.474742e+02, 4.427504e-41, 3.798910e+00, 1.407549e-19, -4.123002e+01, -1.296908e-20
710, 3, 4.474742e+02, 4.427504e-41, 3.798910e+00, 1.407549e-19, -4.123002e+01, -1.296908e-20
710, 4, 4.474742e+02, 4.427504e-41, 3.798910e+00, 1.407549e-19, -4.123002e+01, -1.296908e-20
710, 5, 4.474742e+02, 4.427504e-41, 3.798910e+00, 1.407549e-19, -4.123002e+01, -1.296908e-20
710, 6, 4.474742e+02, 4.427504e-41, 3.798910e+00, 1.407549e-19, -4.123002e+01, -1.296908e-20
710, 7, 4.474742e+02, 4.427504e-41, 3.798910e+00, 1.407549e-19, -4.123002e+01, -1.296908e-20
710, 8, 4.474742e+02, 4.427504e-41, 3.798910e+00, 1.407549e-19, -4.123002e+01, -1.296908e-20
711, 1, 4.475206e+02, 4.854847e-41, 3.705404e+00, 1.473989e-19, -4.072155e+01, -1.341237e-20
711, 2, 4.475206e+02, 4.854847e-41, 3.705404e+00, 1.473989e-19, -4.072155e+01, -1.341237e-20
711, 3, 4.475206e+02, 4.854847e-41, 3.705404e+00, 1.473989e-19, -4.072155e+01, -1.341237e-20
711, 4, 4.475206e+02, 4.854847e-41, 3.705404e+00, 1.473989e-19, -4.072155e+01, -1.341237e-20
711, 5, 4.475206e+02, 4.854847e-41, 3.705404e+00, 1.473989e-19, -4.072155e+01, -1.341237e-20
711, 6, 4.475206e+02, 4.854847e-41, 3.705404e+00, 1.473989e-19, -4.072155e+01, -1.341237e-20
711, 7, 4.475206e+02, 4.854847e-41, 3.705404e+00, 1.473989e-19, -4.072155e+01, -1.341237e-20
711, 8, 4.475206e+02, 4.854847e-41, 3.705404e+00, 1.473989e-19, -4.072155e+01, -1.341237e-20
712, 1, 4.475797e+02, 8.566766e-40, 3.585781e+00, 6.192181e-19, -4.006149e+01, -5.542432e-20
712, 2, 4.475797e+02, 8.566766e-40, 3.585781e+00, 6.192181e-19, -4.006149e+01, -5.542432e-20
712, 3, 4.475797e+02, 8.566766e-40, 3.585781e+00, 6.192181e-19, -4.006149e+01, -5.542432e-20
712, 4, 4.475797e+02, 8.566766e-40, 3.585781e+00, 6.192181e-19, -4.006149e+01, -5.542432e-20
712, 5, 4.475797e+02, 8.566766e-40, 3.585781e+00, 6.192181e-19, -4.006149e+01, -5.542432e-20
712, 6, 4.475797e+02, 8.566766e-40, 3.585781e+00, 6.192181e-19, -4.006149e+01, -5.542432e-20
712, 7, 4.475797e+02, 8.566766e-40, 3.585781e+00, 6.192181e-19, -4.006149e+01, -5.542432e-20
712, 8, 4.475797e+02, 8.566766e-40, 3.585781e+00, 6.192181e-19, -4.006149e+01, -5.542432e-20
713, 1, 4.476330e+02, 6.177845e-41, 3.476408e+00, 1.662951e-19, -3.944813e+01, -1.465493e-20
713, 2, 4.476330e+02, 6.177845e-41, 3.476408e+00, 1.662951e-19, -3.944813e+01, -1.465493e-20
713, 3, 4.476330e+02, 6.177845e-41, 3.476408e+00, 1.662951e-19, -3.944813e+01, -1.465493e-20
713, 4, 4.476330e+02, 6.177845e-41, 3.476408e+00, 1.662951e-19, -3.944813e+01, -1.465493e-20
713, 5, 4.476330e+02, 6.177845e-41, 3.476408e+00, 1.662951e-19, -3.944813e+01, -1.465493e-20
713, 6, 4.476330e+02, 6.177845e-41, 3.476408e+00, 1.662951e-19, -3.944813e+01, -1.465493e-20
713, 7, 4.476330e+02, 6.177845e-41, 3.476408e+00, 1.662951e-19, -3.944813e+01, -1.465493e-20
713, 8, 4.476330e+02, 6.177845e-41, 3.476408e+00, 1.662951e-19, -3.944813e+01, -1.465493e-20
714, 1, 4.476713e+02, 6.614173e-41, 3.402241e+00, 1.720749e-19, -3.902673e+01, -1.500100e-20
714, 2, 4.476713e+02, 6.614173e-41, 3.402241e+00, 1.720749e-19, -3.902673e+01, -1.500100e-20
714, 3, 4.476713e+02, 6.614173e-41, 3.402241e+00, 1.720749e-19, -3.902673e+01, -1.500100e-20
714, 4, 4.476713e+02, 6.614173e-41, 3.402241e+00, 1.720749e-19, -3.902673e+01, -1.500100e-20
714, 5, 4.476713e+02, 6.614173e-41, 3.402241e+00, 1.720749e-19, -3.902673e+01, -1.500100e-20
714, 6, 4.476713e+02, 6.614173e-41, 3.402241e+00, 1.720749e-19, -3.902673e+01, -1.500100e-20
714, 7, 4.476713e+02, 6.614173e-41, 3.402241e+00, 1.720749e-19, -3.902673e+01, -1.500100e-20
714, 8, 4.476713e+02, 6.614173e-41, 3.402241e+00, 1.720749e-19, -3.902673e+01, -1.500100e-20
715, 1, 4.477252e+02, 3.309190e-39, 3.296767e+00, 1.217213e-18, -3.841934e+01, -1.044492e-19
715, 2, 4.477252e+02, 3.309190e-39, 3.296767e+00, 1.217213e-18, -3.841934e+01, -1.044492e-19
715, 3, 4.477252e+02, 3.309190e-39, 3.296767e+00, 1.217213e-18, -3.841934e+01, -1.044492e-19
715, 4, 4.477252e+02, 3.309190e-39, 3.296767e+00, 1.217213e-18, -3.841934e+01, -1.044492e-19
715, 5, 4.477252e+02, 3.309190e-39, 3.296767e+00, 1.217213e-18, -3.841934e+01, -1.044492e-19
715, 6, 4.477252e+02, 3.309190e-39, 3.296767e+00, 1.217213e-18, -3.841934e+01, -1.044492e-19
715, 7, 4.477252e+02, 3.309190e-39, 3.296767e+00, 1.217213e-18, -3.841934e+01, -1.044492e-19
715, 8, 4.477252e+02, 3.309190e-39, 3.296767e+00, 1.217213e-18, -3.841934e+01, -1.044492e-19
716, 1, 4.477957e+02, 3.822749e-39, 3.152254e+00, 1.308362e-18, -3.757081e+01, -1.097737e-19
716, 2, 4.477957e+02, 3.822749e-39, 3.152254e+00, 1.308362e-18, -3.757081e+01, -1.097737e-19
716, 3, 4.477957e+02, 3.822749e-39, 3.152254e+00, 1.308362e-18, -3.757081e+01, -1.097737e-19
716, 4, 4.477957e+02, 3.822749e-39, 3.152254e+00, 1.308362e-18, -3.757081e+01, -1.097737e-19
716, 5, 4.477957e+02, 3.822749e-39, 3.152254e+00, 1.308362e-18, -3.757081e+01, -1.097737e-19
716, 6, 4.477957e+02, 3.822749e-39, 3.152254e+00, 1.308362e-18, -3.757081e+01, -1.097737e-19
716, 7, 4.477957e+02, 3.822749e-39, 3.152254e+00, 1.308362e-18, -3.757081e+01, -1.097737e-19
716, 8, 4.477957e+02, 3.822749e-39, 3.152254e+00, 1.308362e-18, -3.757081e+01, -1.097737e-19
717, 1, 4.478466e+02, 9.245376e-41, 3.049763e+00, 2.034824e-19, -3.695708e+01, -1.679172e-20
717, 2, 4.478466e+02, 9.245376e-41, 3.049763e+00, 2.034824e-19, -3.695708e+01, -1.679172e-20
717, 3, 4.478466e+02, 9.245376e-41, 3.049763e+00, 2.034824e-19, -3.695708e+01, -1.679172e-20
717, 4, 4.478466e+02, 9.245376e-41, 3.049763e+00, 2.034824e-19, -3.695708e+01, -1.679172e-20
717, 5, 4.478466e+02, 9.245376e-41, 3.049763e+00, 2.034824e-19, -3.695708e+01, -1.679172e-20
717, 6, 4.478466e+02, 9.245376e-41, 3.049763e+00, 2.034824e-19, -3.695708e+01, -1.679172e-20
717, 7, 4.478466e+02, 9.245376e-41, 3.049763e+00, 2.034824e-19, -3.695708e+01, -1.679172e-20
717, 8, 4.478466e+02, 9.245376e-41, 3.049763e+00, 2.034824e-19, -3.695708e+01, -1.679172e-20
718, 1, 4.478825e+02, 9.873127e-41, 2.980299e+00, 2.102855e-19, -3.653524e+01, -1.715368e-20
718, 2, 4.478825e+02, 9.873127e-41, 2.980299e+00, 2.102855e-19, -3.653524e+01, -1.715368e-20
718, 3, 4.478825e+02, 9.873127e-41, 2.980299e+00, 2.102855e-19, -3.653524e+01, -1.715368e-20
718, 4, 4.478825e+02, 9.873127e-41, 2.980299e+00, 2.102855e-19, -3.653524e+01, -1.715368e-20
718, 5, 4.478825e+02, 9.873127e-41, 2.980299e+00, 2.102855e-19, -3.653524e+01, -1.715368e-20
718, 6, 4.478825e+02, 9.873127e-41, 2.980299e+00, 2.102855e-19, -3.653524e+01, -1.715368e-20
718, 7, 4.478825e+02, 9.873127e-41, 2.980299e+00, 2.102855e-19, -3.653524e+01, -1.715368e-20
718, 8, 4.478825e+02, 9.873127e-41, 2.980299e+00, 2.102855e-19, -3.653524e+01, -1.715368e-20
719, 1, 4.479319e+02, 4.556648e-39, 2.881573e+00, 1.428659e-18, -3.592699e+01, -1.145876e-19
719, 2, 4.479319e+02, 4.556648e-39, 2.881573e+00, 1.428659e-18, -3.592699e+01, -1.145876e-19
719, 3, 4.479319e+02, 4.556648e-39, 2.881573e+00, 1.428659e-18, -3.592699e+01, -1.145876e-19
719, 4, 4.479319e+02, 4.556648e-39, 2.881573e+00, 1.428659e-18, -3.592699e+01, -1.145876e-19
719, 5, 4.479319e+02, 4.556648e-39, 2.881573e+00, 1.428659e-18, -3.592699e+01, -1.145876e-19
719, 6, 4.479319e+02, 4.556648e-39, 2.881573e+00, 1.428659e-18, -3.592699e+01, -1.145876e-19
719, 7, 4.479319e+02, 4.556648e-39, 2.881573e+00, 1.428659e-18, -3.592699e+01, -1.145876e-19
719, 8, 4.479319e+02, 4.556648e-39, 2.881573e+00, 1.428659e-18, -3.592699e+01, -1.145876e-19
720, 1, 4.479891e+02, 2.406810e-40, 2.766072e+00, 3.283633e-19, -3.520185e+01, -2.580195e-20
720, 2, 4.479891e+02, 2.406810e-40, 2.766072e+00, 3.283633e-19, -3.520185e+01, -2.580195e-20
720, 3, 4.479891e+02, 2.406810e-40, 2.766072e+00, 3.283633e-19, -3.520185e+01, -2.580195e-20
720, 4, 4.479891e+02, 2.406810e-40, 2.766072e+00, 3.283633e-19, -3.520185e+01, -2.580195e-20
720, 5, 4.479891e+02, 2.406810e-40, 2.766072e+00, 3.283633e-19, -3.520185e+01, -2.580195e-20
720, 6, 4.479891e+02, 2.406810e-40, 2.766072e+00, 3.283633e-19, -3.520185e+01, -2.580195e-20
720, 7, 4.479891e+02, 2.406810e-40, 2.766072e+00, 3.283633e-19, -3.520185e+01, -2.580195e-20
720, 8, 4.479891e+02, 2.406810e-40, 2.766072e+00, 3.283633e-19, -3.520185e+01, -2.580195e-20
721, 1, 4.482330e+02, 2.901507e-39, 2.273242e+00, 1.140417e-18, -3.192087e+01, -8.121470e-20
721, 2, 4.482330e+02, 2.901507e-39, 2.273242e+00, 1.140417e-18, -3.192087e+01, -8.121470e-20
721, 3, 4.482330e+02, 2.901507e-39, 2.273242e+00, 1.140417e-18, -3.192087e+01, -8.121470e-20
721, 4, 4.482330e+02, 2.901507e-39, 2.273242e+00, 1.140417e-18, -3.192087e+01, -8.121470e-20
721, 5, 4.482330e+02, 2.901507e-39, 2.273242e+00, 1.140417e-18, -3.192087e+01, -8.121470e-20
721, 6, 4.482330e+02, 2.901507e-39, 2.273242e+00, 1.140417e-18, -3.192087e+01, -8.121470e-20
721, 7, 4.482330e+02, 2.901507e-39, 2.273242e+00, 1.140417e-18, -3.192087e+01, -8.121470e-20
721, 8, 4.482330e+02, 2.901507e-39, 2.273242e+00, 1.140417e-18, -3.192087e+01, -8.121470e-20
722, 1, 4.482564e+02, 4.509415e-40, 2.227443e+00, 4.495969e-19, -3.159851e+01, -3.169300e-20
722, 2, 4.482564e+02, 4.509415e-40, 2.227443e+00, 4.495969e-19, -3.159851e+01, -3.169300e-20
722, 3, 4.482564e+02, 4.509415e-40, 2.227443e+00, 4.495969e-19, -3.159851e+01, -3.169300e-20
722, 4, 4.482564e+02, 4.509415e-40, 2.227443e+00, 4.495969e-19, -3.159851e+01, -3.169300e-20
722, 5, 4.482564e+02, 4.509415e-40, 2.227443e+00, 4.495969e-19, -3.159851e+01, -3.169300e-20
722, 6, 4.482564e+02, 4.509415e-40, 2.227443e+00, 4.495969e-19, -3.159851e+01, -3.169300e-20
722, 7, 4.482564e+02, 4.509415e-40, 2.227443e+00, 4.495969e-19, -3.159851e+01, -3.169300e-20
722, 8, 4.482564e+02, 4.509415e-40, 2.227443e+00, 4.495969e-19, -3.159851e+01, -3.169300e-20
723, 1, 4.062172e+02, 3.421095e-44, 9.088815e+01, -3.727878e-21, -1.921466e+02, 1.763341e-21
723, 2, 4.062172e+02, 3.421095e-44, 9.088815e+01, -3.727878e-21, -1.921466e+02, 1.763341e-21
723, 3, 4.062172e+02, 3.421095e-44, 9.088815e+01, -3.727878e-21, -1.921466e+02, 1.763341e-21
723, 4, 4.062172e+02, 3.421095e-44, 9.088815e+01, -3.727878e-21, -1.921466e+02, 1.763341e-21
723, 5, 4.062172e+02, 3.421095e-44, 9.088815e+01, -3.727878e-21, -1.921466e+02, 1.763341e-21
723, 6, 4.062172e+02, 3.421095e-44, 9.088815e+01, -3.727878e-21, -1.921466e+02, 1.763341e-21
723, 7, 4.062172e+02, 3.421095e-44, 9.088815e+01, -3.727878e-21, -1.921466e+02, 1.763341e-21
723, 8, 4.062172e+02, 3.421095e-44, 9.088815e+01, -3.727878e-21, -1.921466e+02, 1.763341e-21
724, 1, 4.063077e+02, 4.113666e-48, 9.068779e+01, -4.088293e-23, -1.919561e+02, 1.931474e-23
724, 2, 4.063077e+02, 4.113666e-48, 9.068779e+01, -4.088293e-23, -1.919561e+02, 1.931474e-23
724, 3, 4.063077e+02, 4.113666e-48, 9.068779e+01, -4.088293e-23, -1.919561e+02, 1.931474e-23
724, 4, 4.063077e+02, 4.113666e-48, 9.068779e+01, -4.088293e-23, -1.919561e+02, 1.931474e-23
724, 5, 4.063077e+02, 4.113666e-48, 9.068779e+01, -4.088293e-23, -1.919561e+02, 1.931474e-23
724, 6, 4.063077e+02, 4.113666e-48, 9.068779e+01, -4.088293e-23, -1.919561e+02, 1.931474e-23
724, 7, 4.063077e+02, 4.113666e-48, 9.068779e+01, -4.088293e-23, -1.919561e+02, 1.931474e-23
724, 8, 4.063077e+02, 4.113666e-48, 9.068779e+01, -4.088293e-23, -1.919561e+02, 1.931474e-23
725, 1, 4.064145e+02, 1.272927e-44, 9.045323e+01, 2.274502e-21, -1.917329e+02, -1.073035e-21
725, 2, 4.064145e+02, 1.272927e-44, 9.045323e+01, 2.274502e-21, -1.917329e+02, -1.073035e-21
725, 3, 4.064145e+02, 1.272927e-44, 9.045323e+01, 2.274502e-21, -1.917329e+02, -1.073035e-21
725, 4, 4.064145e+02, 1.272927e-44, 9.045323e+01, 2.274502e-21, -1.917329e+02, -1.073035e-21
725, 5, 4.064145e+02, 1.272927e-44, 9.045323e+01, 2.274502e-21, -1.917329e+02, -1.073035e-21
725, 6, 4.064145e+02, 1.272927e-44, 9.045323e+01, 2.274502e-21, -1.917329e+02, -1.073035e-21
725, 7, 4.064145e+02, 1.272927e-44, 9.045323e+01, 2.274502e-21, -1.917329e+02, -1.073035e-21
725, 8, 4.064145e+02, 1.272927e-44, 9.045323e+01, 2.274502e-21, -1.917329e+02, -1.073035e-21
726, 1, 3.612396e+02, 7.683508e-42, 1.977573e+02, -5.268385e-20, -2.672785e+02, 3.898038e-20
726, 2, 3.612396e+02, 7.683508e-42, 1.977573e+02, -5.268385e-20, -2.672785e+02, 3.898038e-20
726, 3, 3.612396e+02, 7.683508e-42, 1.977573e+02, -5.268385e-20, -2.672785e+02, 3.898038e-20
726, 4, 3.612396e+02, 7.683508e-42, 1.977573e+02, -5.268385e-20, -2.672785e+02, 3.898038e-20
726, 5, 3.612396e+02, 7.683508e-42, 1.977573e+02, -5.268385e-20, -2.672785e+02, 3.898038e-20
726, 6, 3.612396e+02, 7.683508e-42, 1.977573e+02, -5.268385e-20, -2.672785e+02, 3.898038e-20
726, 7, 3.612396e+02, 7.683508e-42, 1.977573e+02, -5.268385e-20, -2.672785e+02, 3.898038e-20
726, 8, 3.612396e+02, 7.683508e-42, 1.977573e+02, -5.268385e-20, -2.672785e+02, 3.898038e-20
727, 1, 3.620979e+02, 3.533369e-45, 1.955850e+02, 1.131117e-21, -2.661220e+02, -8.313086e-22
727, 2, 3.620979e+02, 3.533369e-45, 1.955850e+02, 1.131117e-21, -2.661220e+02, -8.313086e-22
727, 3, 3.620979e+02, 3.533369e-45, 1.955850e+02, 1.131117e-21, -2.661220e+02, -8.313086e-22
727, 4, 3.620979e+02, 3.533369e-45, 1.955850e+02, 1.131117e-21, -2.661220e+02, -8.313086e-22
727, 5, 3.620979e+02, 3.533369e-45, 1.955850e+02, 1.131117e-21, -2.661220e+02, -8.313086e-22
727, 6, 3.620979e+02, 3.533369e-45, 1.955850e+02, 1.131117e-21, -2.661220e+02, -8.313086e-22
727, 7, 3.620979e+02, 3.533369e-45, 1.955850e+02, 1.131117e-21, -2.661220e+02, -8.313086e-22
727, 8, 3.620979e+02, 3.533369e-45, 1.955850e+02, 1.131117e-21, -2.661220e+02, -8.313086e-22
728, 1, 3.149242e+01, 6.648648e-32, 3.500206e+01, 1.447004e-15, 3.320090e+01, 1.525505e-15
728, 2, 3.149242e+01, 6.648648e-32, 3.500206e+01, 1.447004e-15, 3.320090e+01, 1.525505e-15
728, 3, 3.149242e+01, 6.648648e-32, 3.500206e+01, 1.447004e-15, 3.320090e+01, 1.525505e-15
728, 4, 3.149242e+01, 6.648648e-32, 3.500206e+01, 1.447004e-15, 3.320090e+01, 1.525505e-15
728, 5, 3.149242e+01, 6.648648e-32, 3.500206e+01, 1.447004e-15, 3.320090e+01, 1.525505e-15
728, 6, 3.149242e+01, 6.648648e-32, 3.500206e+01, 1.447004e-15, 3.320090e+01, 1.525505e-15
728, 7, 3.149242e+01, 6.648648e-32, 3.500206e+01, 1.447004e-15, 3.320090e+01, 1.525505e-15
728, 8, 3.149242e+01, 6.648648e-32, 3.500206e+01, 1.447004e-15, 3.320090e+01, 1.525505e-15
729, 1, 3.381084e+01, 4.185879e-31, 3.660450e+01, 3.762022e-15, -3.517995e+01, -3.914358e-15
729, 2, 3.381084e+01, 4.185879e-31, 3.660450e+01, 3.762022e-15, -3.517995e+01, -3.914358e-15
729, 3, 3.381084e+01, 4.185879e-31, 3.660450e+01, 3.762022e-15, -3.517995e+01, -3.914358e-15
729, 4, 3.381084e+01, 4.185879e-31, 3.660450e+01, 3.762022e-15, -3.517995e+01, -3.914358e-15
729, 5, 3.381084e+01, 4.185879e-31, 3.660450e+01, 3.762022e-15, -3.517995e+01, -3.914358e-15
729, 6, 3.381084e+01, 4.185879e-31, 3.660450e+01, 3.762022e-15, -3.517995e+01, -3.914358e-15
729, 7, 3.381084e+01, 4.185879e-31, 3.660450e+01, 3.762022e-15, -3.517995e+01, -3.914358e-15
729, 8, 3.381084e+01, 4.185879e-31, 3.660450e+01, 3.762022e-15, -3.517995e+01, -3.914358e-15
1001, 1, 3.348321e+02, 0.000000e+00, 7.561757e+01, 0.000000e+00, 1.591200e+02, 0.000000e+00
1001, 2, 3.348321e+02, 0.000000e+00, 7.561757e+01, 0.000000e+00, 1.591200e+02, 0.000000e+00
1001, 3, 3.348321e+02, 0.000000e+00, 7.561757e+01, 0.000000e+00, 1.591200e+02, 0.000000e+00
1001, 4, 3.348321e+02, 0.000000e+00, 7.561757e+01, 0.000000e+00, 1.591200e+02, 0.000000e+00
1001, 5, 3.348321e+02, 0.000000e+00, 7.561757e+01, 0.000000e+00, 1.591200e+02, 0.000000e+00
1001, 6, 3.348321e+02, 0.000000e+00, 7.561757e+01, 0.000000e+00, 1.591200e+02, 0.000000e+00
1001, 7, 3.348321e+02, 0.000000e+00, 7.561757e+01, 0.000000e+00, 1.591200e+02, 0.000000e+00
1001, 8, 3.348321e+02, 0.000000e+00, 7.561757e+01, 0.000000e+00, 1.591200e+02, 0.000000e+00
1002, 1, 3.339996e+02, 0.000000e+00, 7.746755e+01, 0.000000e+00, 1.608544e+02, 0.000000e+00
1002, 2, 3.339996e+02, 0.000000e+00, 7.746755e+01, 0.000000e+00, 1.608544e+02, 0.000000e+00
1002, 3, 3.339996e+02, 0.000000e+00, 7.746755e+01, 0.000000e+00, 1.608544e+02, 0.000000e+00
1002, 4, 3.339996e+02, 0.000000e+00, 7.746755e+01, 0.000000e+00, 1.608544e+02, 0.000000e+00
1002, 5, 3.339996e+02, 0.000000e+00, 7.746755e+01, 0.000000e+00, 1.608544e+02, 0.000000e+00
1002, 6, 3.339996e+02, 0.000000e+00, 7.746755e+01, 0.000000e+00, 1.608544e+02, 0.000000e+00
1002, 7, 3.339996e+02, 0.000000e+00, 7.746755e+01, 0.000000e+00, 1.608544e+02, 0.000000e+00
1002, 8, 3.339996e+02, 0.000000e+00, 7.746755e+01, 0.000000e+00, 1.608544e+02, 0.000000e+00
1003, 1, 3.529609e+02, 0.000000e+00, 3.640094e+01, 0.000000e+00, 1.133495e+02, 0.000000e+00
1003, 2, 3.529609e+02, 0.000000e+00, 3.640094e+01, 0.000000e+00, 1.133495e+02, 0.000000e+00
1003, 3, 3.529609e+02, 0.000000e+00, 3.640094e+01, 0.000000e+00, 1.133495e+02, 0.000000e+00
1003, 4, 3.529609e+02, 0.000000e+00, 3.640094e+01, 0.000000e+00, 1.133495e+02, 0.000000e+00
1003, 5, 3.529609e+02, 0.000000e+00, 3.640094e+01, 0.000000e+00, 1.133495e+02, 0.000000e+00
1003, 6, 3.529609e+02, 0.000000e+00, 3.640094e+01, 0.000000e+00, 1.133495e+02, 0.000000e+00
1003, 7, 3.529609e+02, 0.000000e+00, 3.640094e+01, 0.000000e+00, 1.133495e+02, 0.000000e+00
1003, 8, 3.529609e+02, 0.000000e+00, 3.640094e+01, 0.000000e+00, 1.133495e+02, 0.000000e+00
1004, 1, 3.528455e+02, 0.000000e+00, 3.663541e+01, 0.000000e+00, 1.136954e+02, 0.000000e+00
1004, 2, 3.528455e+02, 0.000000e+00, 3.663541e+01, 0.000000e+00, 1.136954e+02, 0.000000e+00
1004, 3, 3.528455e+02, 0.000000e+00, 3.663541e+01, 0.000000e+00, 1.136954e+02, 0.000000e+00
1004, 4, 3.528455e+02, 0.000000e+00, 3.663541e+01, 0.000000e+00, 1.136954e+02, 0.000000e+00
1004, 5, 3.528455e+02, 0.000000e+00, 3.663541e+01, 0.000000e+00, 1.136954e+02, 0.000000e+00
1004, 6, 3.528455e+02, 0.000000e+00, 3.663541e+01, 0.000000e+00, 1.136954e+02, 0.000000e+00
1004, 7, 3.528455e+02, 0.000000e+00, 3.663541e+01, 0.000000e+00, 1.136954e+02, 0.000000e+00
1004, 8, 3.528455e+02, 0.000000e+00, 3.663541e+01, 0.000000e+00, 1.136954e+02, 0.000000e+00
1005, 1, 3.526235e+02, 0.000000e+00, 3.710132e+01, 0.000000e+00, 1.143801e+02, 0.000000e+00
1005, 2, 3.526235e+02, 0.000000e+00, 3.710132e+01, 0.000000e+00, 1.143801e+02, 0.000000e+00
1005, 3, 3.526235e+02, 0.000000e+00, 3.710132e+01, 0.000000e+00, 1.143801e+02, 0.000000e+00
1005, 4, 3.526235e+02, 0.000000e+00, 3.710132e+01, 0.000000e+00, 1.143801e+02, 0.000000e+00
1005, 5, 3.526235e+02, 0.000000e+00, 3.710132e+01, 0.000000e+00, 1.143801e+02, 0.000000e+00
1005, 6, 3.526235e+02, 0.000000e+00, 3.710132e+01, 0.000000e+00, 1.143801e+02, 0.000000e+00
1005, 7, 3.526235e+02, 0.000000e+00, 3.710132e+01, 0.000000e+00, 1.143801e+02, 0.000000e+00
1005, 8, 3.526235e+02, 0.000000e+00, 3.710132e+01, 0.000000e+00, 1.143801e+02, 0.000000e+00
1006, 1, 3.523762e+02, 0.000000e+00, 3.762236e+01, 0.000000e+00, 1.151400e+02, 0.000000e+00
1006, 2, 3.523762e+02, 0.000000e+00, 3.762236e+01, 0.000000e+00, 1.151400e+02, 0.000000e+00
1006, 3, 3.523762e+02, 0.000000e+00, 3.762236e+01, 0.000000e+00, 1.151400e+02, 0.000000e+00
1006, 4, 3.523762e+02, 0.000000e+00, 3.762236e+01, 0.000000e+00, 1.151400e+02, 0.000000e+00
1006, 5, 3.523762e+02, 0.000000e+00, 3.762236e+01, 0.000000e+00, 1.151400e+02, 0.000000e+00
1006, 6, 3.523762e+02, 0.000000e+00, 3.762236e+01, 0.000000e+00, 1.151400e+02, 0.000000e+00
1006, 7, 3.523762e+02, 0.000000e+00, 3.762236e+01, 0.000000e+00, 1.151400e+02, 0.000000e+00
1006, 8, 3.523762e+02, 0.000000e+00, 3.762236e+01, 0.000000e+00, 1.151400e+02, 0.000000e+00
1007, 1, 3.521307e+02, 0.000000e+00, 3.814749e+01, 0.000000e+00, 1.159004e+02, 0.000000e+00
1007, 2, 3.521307e+02, 0.000000e+00, 3.814749e+01, 0.000000e+00, 1.159004e+02, 0.000000e+00
1007, 3, 3.521307e+02, 0.000000e+00, 3.814749e+01, 0.000000e+00, 1.159004e+02, 0.000000e+00
1007, 4, 3.521307e+02, 0.000000e+00, 3.814749e+01, 0.000000e+00, 1.159004e+02, 0.000000e+00
1007, 5, 3.521307e+02, 0.000000e+00, 3.814749e+01, 0.000000e+00, 1.159004e+02, 0.000000e+00
1007, 6, 3.521307e+02, 0.000000e+00, 3.814749e+01, 0.000000e+00, 1.159004e+02, 0.000000e+00
1007, 7, 3.521307e+02, 0.000000e+00, 3.814749e+01, 0.000000e+00, 1.159004e+02, 0.000000e+00
1007, 8, 3.521307e+02, 0.000000e+00, 3.814749e+01, 0.000000e+00, 1.159004e+02, 0.000000e+00
1008, 1, 3.512423e+02, 0.000000e+00, 4.002962e+01, 0.000000e+00, 1.185753e+02, 0.000000e+00
1008, 2, 3.512423e+02, 0.000000e+00, 4.002962e+01, 0.000000e+00, 1.185753e+02, 0.000000e+00
1008, 3, 3.512423e+02, 0.000000e+00, 4.002962e+01, 0.000000e+00, 1.185753e+02, 0.000000e+00
1008, 4, 3.512423e+02, 0.000000e+00, 4.002962e+01, 0.000000e+00, 1.185753e+02, 0.000000e+00
1008, 5, 3.512423e+02, 0.000000e+00, 4.002962e+01, 0.000000e+00, 1.185753e+02, 0.000000e+00
1008, 6, 3.512423e+02, 0.000000e+00, 4.002962e+01, 0.000000e+00, 1.185753e+02, 0.000000e+00
1008, 7, 3.512423e+02, 0.000000e+00, 4.002962e+01, 0.000000e+00, 1.185753e+02, 0.000000e+00
1008, 8, 3.512423e+02, 0.000000e+00, 4.002962e+01, 0.000000e+00, 1.185753e+02, 0.000000e+00
1009, 1, 3.509481e+02, 0.000000e+00, 4.065107e+01, 0.000000e+00, 1.194421e+02, 0.000000e+00
1009, 2, 3.509481e+02, 0.000000e+00, 4.065107e+01, 0.000000e+00, 1.194421e+02, 0.000000e+00
1009, 3, 3.509481e+02, 0.000000e+00, 4.065107e+01, 0.000000e+00, 1.194421e+02, 0.000000e+00
1009, 4, 3.509481e+02, 0.000000e+00, 4.065107e+01, 0.000000e+00, 1.194421e+02, 0.000000e+00
1009, 5, 3.509481e+02, 0.000000e+00, 4.065107e+01, 0.000000e+00, 1.194421e+02, 0.000000e+00
1009, 6, 3.509481e+02, 0.000000e+00, 4.065107e+01, 0.000000e+00, 1.194421e+02, 0.000000e+00
1009, 7, 3.509481e+02, 0.000000e+00, 4.065107e+01, 0.000000e+00, 1.194421e+02, 0.000000e+00
1009, 8, 3.509481e+02, 0.000000e+00, 4.065107e+01, 0.000000e+00, 1.194421e+02, 0.000000e+00
1010, 1, 3.506648e+02, 0.000000e+00, 4.124975e+01, 0.000000e+00, 1.202698e+02, 0.000000e+00
1010, 2, 3.506648e+02, 0.000000e+00, 4.124975e+01, 0.000000e+00, 1.202698e+02, 0.000000e+00
1010, 3, 3.506648e+02, 0.000000e+00, 4.124975e+01, 0.000000e+00, 1.202698e+02, 0.000000e+00
1010, 4, 3.506648e+02, 0.000000e+00, 4.124975e+01, 0.000000e+00, 1.202698e+02, 0.000000e+00
1010, 5, 3.506648e+02, 0.000000e+00, 4.124975e+01, 0.000000e+00, 1.202698e+02, 0.000000e+00
1010, 6, 3.506648e+02, 0.000000e+00, 4.124975e+01, 0.000000e+00, 1.202698e+02, 0.000000e+00
1010, 7, 3.506648e+02, 0.000000e+00, 4.124975e+01, 0.000000e+00, 1.202698e+02, 0.000000e+00
1010, 8, 3.506648e+02, 0.000000e+00, 4.124975e+01, 0.000000e+00, 1.202698e+02, 0.000000e+00
1011, 1, 3.503829e+02, 0.000000e+00, 4.185296e+01, 0.000000e+00, 1.210973e+02, 0.000000e+00
1011, 2, 3.503829e+02, 0.000000e+00, 4.185296e+01, 0.000000e+00, 1.210973e+02, 0.000000e+00
1011, 3, 3.503829e+02, 0.000000e+00, 4.185296e+01, 0.000000e+00, 1.210973e+02, 0.000000e+00
1011, 4, 3.503829e+02, 0.000000e+00, 4.185296e+01, 0.000000e+00, 1.210973e+02, 0.000000e+00
1011, 5, 3.503829e+02, 0.000000e+00, 4.185296e+01, 0.000000e+00, 1.210973e+02, 0.000000e+00
1011, 6, 3.503829e+02, 0.000000e+00, 4.185296e+01, 0.000000e+00, 1.210973e+02, 0.000000e+00
1011, 7, 3.503829e+02, 0.000000e+00, 4.185296e+01, 0.000000e+00, 1.210973e+02, 0.000000e+00
1011, 8, 3.503829e+02, 0.000000e+00, 4.185296e+01, 0.000000e+00, 1.210973e+02, 0.000000e+00
1012, 1, 3.500816e+02, 0.000000e+00, 4.248746e+01, 0.000000e+00, 1.219593e+02, 0.000000e+00
1012, 2, 3.500816e+02, 0.000000e+00, 4.248746e+01, 0.000000e+00, 1.219593e+02, 0.000000e+00
1012, 3, 3.500816e+02, 0.000000e+00, 4.248746e+01, 0.000000e+00, 1.219593e+02, 0.000000e+00
1012, 4, 3.500816e+02, 0.000000e+00, 4.248746e+01, 0.000000e+00, 1.219593e+02, 0.000000e+00
1012, 5, 3.500816e+02, 0.000000e+00, 4.248746e+01, 0.000000e+00, 1.219593e+02, 0.000000e+00
1012, 6, 3.500816e+02, 0.000000e+00, 4.248746e+01, 0.000000e+00, 1.219593e+02, 0.000000e+00
1012, 7, 3.500816e+02, 0.000000e+00, 4.248746e+01, 0.000000e+00, 1.219593e+02, 0.000000e+00
1012, 8, 3.500816e+02, 0.000000e+00, 4.248746e+01, 0.000000e+00, 1.219593e+02, 0.000000e+00
1013, 1, 3.491253e+02, 0.000000e+00, 4.451479e+01, 0.000000e+00, 1.246645e+02, 0.000000e+00
1013, 2, 3.491253e+02, 0.000000e+00, 4.451479e+01, 0.000000e+00, 1.246645e+02, 0.000000e+00
1013, 3, 3.491253e+02, 0.000000e+00, 4.451479e+01, 0.000000e+00, 1.246645e+02, 0.000000e+00
1013, 4, 3.491253e+02, 0.000000e+00, 4.451479e+01, 0.000000e+00, 1.246645e+02, 0.000000e+00
1013, 5, 3.491253e+02, 0.000000e+00, 4.451479e+01, 0.000000e+00, 1.246645e+02, 0.000000e+00
1013, 6, 3.491253e+02, 0.000000e+00, 4.451479e+01, 0.000000e+00, 1.246645e+02, 0.000000e+00
1013, 7, 3.491253e+02, 0.000000e+00, 4.451479e+01, 0.000000e+00, 1.246645e+02, 0.000000e+00
1013, 8, 3.491253e+02, 0.000000e+00, 4.451479e+01, 0.000000e+00, 1.246645e+02, 0.000000e+00
1014, 1, 3.488224e+02, 0.000000e+00, 4.516879e+01, 0.000000e+00, 1.255225e+02, 0.000000e+00
1014, 2, 3.488224e+02, 0.000000e+00, 4.516879e+01, 0.000000e+00, 1.255225e+02, 0.000000e+00
1014, 3, 3.488224e+02, 0.000000e+00, 4.516879e+01, 0.000000e+00, 1.255225e+02, 0.000000e+00
1014, 4, 3.488224e+02, 0.000000e+00, 4.516879e+01, 0.000000e+00, 1.255225e+02, 0.000000e+00
1014, 5, 3.488224e+02, 0.000000e+00, 4.516879e+01, 0.000000e+00, 1.255225e+02, 0.000000e+00
1014, 6, 3.488224e+02, 0.000000e+00, 4.516879e+01, 0.000000e+00, 1.255225e+02, 0.000000e+00
1014, 7, 3.488224e+02, 0.000000e+00, 4.516879e+01, 0.000000e+00, 1.255225e+02, 0.000000e+00
1014, 8, 3.488224e+02, 0.000000e+00, 4.516879e+01, 0.000000e+00, 1.255225e+02, 0.000000e+00
1015, 1, 3.485264e+02, 0.000000e+00, 4.579800e+01, 0.000000e+00, 1.263401e+02, 0.000000e+00
1015, 2, 3.485264e+02, 0.000000e+00, 4.579800e+01, 0.000000e+00, 1.263401e+02, 0.000000e+00
1015, 3, 3.485264e+02, 0.000000e+00, 4.579800e+01, 0.000000e+00, 1.263401e+02, 0.000000e+00
1015, 4, 3.485264e+02, 0.000000e+00, 4.579800e+01, 0.000000e+00, 1.263401e+02, 0.000000e+00
1015, 5, 3.485264e+02, 0.000000e+00, 4.579800e+01, 0.000000e+00, 1.263401e+02, 0.000000e+00
1015, 6, 3.485264e+02, 0.000000e+00, 4.579800e+01, 0.000000e+00, 1.263401e+02, 0.000000e+00
1015, 7, 3.485264e+02, 0.000000e+00, 4.579800e+01, 0.000000e+00, 1.263401e+02, 0.000000e+00
1015, 8, 3.485264e+02, 0.000000e+00, 4.579800e+01, 0.000000e+00, 1.263401e+02, 0.000000e+00
1016, 1, 3.482266e+02, 0.000000e+00, 4.643104e+01, 0.000000e+00, 1.271555e+02, 0.000000e+00
1016, 2, 3.482266e+02, 0.000000e+00, 4.643104e+01, 0.000000e+00, 1.271555e+02, 0.000000e+00
1016, 3, 3.482266e+02, 0.000000e+00, 4.643104e+01, 0.000000e+00, 1.271555e+02, 0.000000e+00
1016, 4, 3.482266e+02, 0.000000e+00, 4.643104e+01, 0.000000e+00, 1.271555e+02, 0.000000e+00
1016, 5, 3.482266e+02, 0.000000e+00, 4.643104e+01, 0.000000e+00, 1.271555e+02, 0.000000e+00
1016, 6, 3.482266e+02, 0.000000e+00, 4.643104e+01, 0.000000e+00, 1.271555e+02, 0.000000e+00
1016, 7, 3.482266e+02, 0.000000e+00, 4.643104e+01, 0.000000e+00, 1.271555e+02, 0.000000e+00
1016, 8, 3.482266e+02, 0.000000e+00, 4.643104e+01, 0.000000e+00, 1.271555e+02, 0.000000e+00
1017, 1, 3.479114e+02, 0.000000e+00, 4.709724e+01, 0.000000e+00, 1.280065e+02, 0.000000e+00
1017, 2, 3.479114e+02, 0.000000e+00, 4.709724e+01, 0.000000e+00, 1.280065e+02, 0.000000e+00
1017, 3, 3.479114e+02, 0.000000e+00, 4.709724e+01, 0.000000e+00, 1.280065e+02, 0.000000e+00
1017, 4, 3.479114e+02, 0.000000e+00, 4.709724e+01, 0.000000e+00, 1.280065e+02, 0.000000e+00
1017, 5, 3.479114e+02, 0.000000e+00, 4.709724e+01, 0.000000e+00, 1.280065e+02, 0.000000e+00
1017, 6, 3.479114e+02, 0.000000e+00, 4.709724e+01, 0.000000e+00, 1.280065e+02, 0.000000e+00
1017, 7, 3.479114e+02, 0.000000e+00, 4.709724e+01, 0.000000e+00, 1.280065e+02, 0.000000e+00
1017, 8, 3.479114e+02, 0.000000e+00, 4.709724e+01, 0.000000e+00, 1.280065e+02, 0.000000e+00
1018, 1, 3.468008e+02, 0.000000e+00, 4.948722e+01, 0.000000e+00, 1.310046e+02, 0.000000e+00
1018, 2, 3.468008e+02, 0.000000e+00, 4.948722e+01, 0.000000e+00, 1.310046e+02, 0.000000e+00
1018, 3, 3.468008e+02, 0.000000e+00, 4.948722e+01, 0.000000e+00, 1.310046e+02, 0.000000e+00
1018, 4, 3.468008e+02, 0.000000e+00, 4.948722e+01, 0.000000e+00, 1.310046e+02, 0.000000e+00
1018, 5, 3.468008e+02, 0.000000e+00, 4.948722e+01, 0.000000e+00, 1.310046e+02, 0.000000e+00
1018, 6, 3.468008e+02, 0.000000e+00, 4.948722e+01, 0.000000e+00, 1.310046e+02, 0.000000e+00
1018, 7, 3.468008e+02, 0.000000e+00, 4.948722e+01, 0.000000e+00, 1.310046e+02, 0.000000e+00
1018, 8, 3.468008e+02, 0.000000e+00, 4.948722e+01, 0.000000e+00, 1.310046e+02, 0.000000e+00
1019, 1, 3.464773e+02, 0.000000e+00, 5.017363e+01, 0.000000e+00, 1.318485e+02, 0.000000e+00
1019, 2, 3.464773e+02, 0.000000e+00, 5.017363e+01, 0.000000e+00, 1.318485e+02, 0.000000e+00
1019, 3, 3.464773e+02, 0.000000e+00, 5.017363e+01, 0.000000e+00, 1.318485e+02, 0.000000e+00
1019, 4, 3.464773e+02, 0.000000e+00, 5.017363e+01, 0.000000e+00, 1.318485e+02, 0.000000e+00
1019, 5, 3.464773e+02, 0.000000e+00, 5.017363e+01, 0.000000e+00, 1.318485e+02, 0.000000e+00
1019, 6, 3.464773e+02, 0.000000e+00, 5.017363e+01, 0.000000e+00, 1.318485e+02, 0.000000e+00
1019, 7, 3.464773e+02, 0.000000e+00, 5.017363e+01, 0.000000e+00, 1.318485e+02, 0.000000e+00
1019, 8, 3.464773e+02, 0.000000e+00, 5.017363e+01, 0.000000e+00, 1.318485e+02, 0.000000e+00
1020, 1, 3.461675e+02, 0.000000e+00, 5.083452e+01, 0.000000e+00, 1.326547e+02, 0.000000e+00
1020, 2, 3.461675e+02, 0.000000e+00, 5.083452e+01, 0.000000e+00, 1.326547e+02, 0.000000e+00
1020, 3, 3.461675e+02, 0.000000e+00, 5.083452e+01, 0.000000e+00, 1.326547e+02, 0.000000e+00
1020, 4, 3.461675e+02, 0.000000e+00, 5.083452e+01, 0.000000e+00, 1.326547e+02, 0.000000e+00
1020, 5, 3.461675e+02, 0.000000e+00, 5.083452e+01, 0.000000e+00, 1.326547e+02, 0.000000e+00
1020, 6, 3.461675e+02, 0.000000e+00, 5.083452e+01, 0.000000e+00, 1.326547e+02, 0.000000e+00
1020, 7, 3.461675e+02, 0.000000e+00, 5.083452e+01, 0.000000e+00, 1.326547e+02, 0.000000e+00
1020, 8, 3.461675e+02, 0.000000e+00, 5.083452e+01, 0.000000e+00, 1.326547e+02, 0.000000e+00
1021, 1, 3.458591e+02, 0.000000e+00, 5.149993e+01, 0.000000e+00, 1.334606e+02, 0.000000e+00
1021, 2, 3.458591e+02, 0.000000e+00, 5.149993e+01, 0.000000e+00, 1.334606e+02, 0.000000e+00
1021, 3, 3.458591e+02, 0.000000e+00, 5.149993e+01, 0.000000e+00, 1.334606e+02, 0.000000e+00
1021, 4, 3.458591e+02, 0.000000e+00, 5.149993e+01, 0.000000e+00, 1.334606e+02, 0.000000e+00
1021, 5, 3.458591e+02, 0.000000e+00, 5.149993e+01, 0.000000e+00, 1.334606e+02, 0.000000e+00
1021, 6, 3.458591e+02, 0.000000e+00, 5.149993e+01, 0.000000e+00, 1.334606e+02, 0.000000e+00
1021, 7, 3.458591e+02, 0.000000e+00, 5.149993e+01, 0.000000e+00, 1.334606e+02, 0.000000e+00
1021, 8, 3.458591e+02, 0.000000e+00, 5.149993e+01, 0.000000e+00, 1.334606e+02, 0.000000e+00
1022, 1, 3.455341e+02, 0.000000e+00, 5.219981e+01, 0.000000e+00, 1.343012e+02, 0.000000e+00
1022, 2, 3.455341e+02, 0.000000e+00, 5.219981e+01, 0.000000e+00, 1.343012e+02, 0.000000e+00
1022, 3, 3.455341e+02, 0.000000e+00, 5.219981e+01, 0.000000e+00, 1.343012e+02, 0.000000e+00
1022, 4, 3.455341e+02, 0.000000e+00, 5.219981e+01, 0.000000e+00, 1.343012e+02, 0.000000e+00
1022, 5, 3.455341e+02, 0.000000e+00, 5.219981e+01, 0.000000e+00, 1.343012e+02, 0.000000e+00
1022, 6, 3.455341e+02, 0.000000e+00, 5.219981e+01, 0.000000e+00, 1.343012e+02, 0.000000e+00
1022, 7, 3.455341e+02, 0.000000e+00, 5.219981e+01, 0.000000e+00, 1.343012e+02, 0.000000e+00
1022, 8, 3.455341e+02, 0.000000e+00, 5.219981e+01, 0.000000e+00, 1.343012e+02, 0.000000e+00
1023, 1, 3.445063e+02, 0.000000e+00, 5.441169e+01, 0.000000e+00, 1.369130e+02, 0.000000e+00
1023, 2, 3.445063e+02, 0.000000e+00, 5.441169e+01, 0.000000e+00, 1.369130e+02, 0.000000e+00
1023, 3, 3.445063e+02, 0.000000e+00, 5.441169e+01, 0.000000e+00, 1.369130e+02, 0.000000e+00
1023, 4, 3.445063e+02, 0.000000e+00, 5.441169e+01, 0.000000e+00, 1.369130e+02, 0.000000e+00
1023, 5, 3.445063e+02, 0.000000e+00, 5.441169e+01, 0.000000e+00, 1.369130e+02, 0.000000e+00
1023, 6, 3.445063e+02, 0.000000e+00, 5.441169e+01, 0.000000e+00, 1.369130e+02, 0.000000e+00
1023, 7, 3.445063e+02, 0.000000e+00, 5.441169e+01, 0.000000e+00, 1.369130e+02, 0.000000e+00
1023, 8, 3.445063e+02, 0.000000e+00, 5.441169e+01, 0.000000e+00, 1.369130e+02, 0.000000e+00
1024, 1, 3.441749e+02, 0.000000e+00, 5.512989e+01, 0.000000e+00, 1.377473e+02, 0.000000e+00
1024, 2, 3.441749e+02, 0.000000e+00, 5.512989e+01, 0.000000e+00, 1.377473e+02, 0.000000e+00
1024, 3, 3.441749e+02, 0.000000e+00, 5.512989e+01, 0.000000e+00, 1.377473e+02, 0.000000e+00
1024, 4, 3.441749e+02, 0.000000e+00, 5.512989e+01, 0.000000e+00, 1.377473e+02, 0.000000e+00
1024, 5, 3.441749e+02, 0.000000e+00, 5.512989e+01, 0.000000e+00, 1.377473e+02, 0.000000e+00
1024, 6, 3.441749e+02, 0.000000e+00, 5.512989e+01, 0.000000e+00, 1.377473e+02, 0.000000e+00
1024, 7, 3.441749e+02, 0.000000e+00, 5.512989e+01, 0.000000e+00, 1.377473e+02, 0.000000e+00
1024, 8, 3.441749e+02, 0.000000e+00, 5.512989e+01, 0.000000e+00, 1.377473e+02, 0.000000e+00
1025, 1, 3.438532e+02, 0.000000e+00, 5.582049e+01, 0.000000e+00, 1.385426e+02, 0.000000e+00
1025, 2, 3.438532e+02, 0.000000e+00, 5.582049e+01, 0.000000e+00, 1.385426e+02, 0.000000e+00
1025, 3, 3.438532e+02, 0.000000e+00, 5.582049e+01, 0.000000e+00, 1.385426e+02, 0.000000e+00
1025, 4, 3.438532e+02, 0.000000e+00, 5.582049e+01, 0.000000e+00, 1.385426e+02, 0.000000e+00
1025, 5, 3.438532e+02, 0.000000e+00, 5.582049e+01, 0.000000e+00, 1.385426e+02, 0.000000e+00
1025, 6, 3.438532e+02, 0.000000e+00, 5.582049e+01, 0.000000e+00, 1.385426e+02, 0.000000e+00
1025, 7, 3.438532e+02, 0.000000e+00, 5.582049e+01, 0.000000e+00, 1.385426e+02, 0.000000e+00
1025, 8, 3.438532e+02, 0.000000e+00, 5.582049e+01, 0.000000e+00, 1.385426e+02, 0.000000e+00
1026, 1, 3.435330e+02, 0.000000e+00, 5.651559e+01, 0.000000e+00, 1.393376e+02, 0.000000e+00
1026, 2, 3.435330e+02, 0.000000e+00, 5.651559e+01, 0.000000e+00, 1.393376e+02, 0.000000e+00
1026, 3, 3.435330e+02, 0.000000e+00, 5.651559e+01, 0.000000e+00, 1.393376e+02, 0.000000e+00
1026, 4, 3.435330e+02, 0.000000e+00, 5.651559e+01, 0.000000e+00, 1.393376e+02, 0.000000e+00
1026, 5, 3.435330e+02, 0.000000e+00, 5.651559e+01, 0.000000e+00, 1.393376e+02, 0.000000e+00
1026, 6, 3.435330e+02, 0.000000e+00, 5.651559e+01, 0.000000e+00, 1.393376e+02, 0.000000e+00
1026, 7, 3.435330e+02, 0.000000e+00, 5.651559e+01, 0.000000e+00, 1.393376e+02, 0.000000e+00
1026, 8, 3.435330e+02, 0.000000e+00, 5.651559e+01, 0.000000e+00, 1.393376e+02, 0.000000e+00
1027, 1, 3.431949e+02, 0.000000e+00, 5.724634e+01, 0.000000e+00, 1.401665e+02, 0.000000e+00
1027, 2, 3.431949e+02, 0.000000e+00, 5.724634e+01, 0.000000e+00, 1.401665e+02, 0.000000e+00
1027, 3, 3.431949e+02, 0.000000e+00, 5.724634e+01, 0.000000e+00, 1.401665e+02, 0.000000e+00
1027, 4, 3.431949e+02, 0.000000e+00, 5.724634e+01, 0.000000e+00, 1.401665e+02, 0.000000e+00
1027, 5, 3.431949e+02, 0.000000e+00, 5.724634e+01, 0.000000e+00, 1.401665e+02, 0.000000e+00
1027, 6, 3.431949e+02, 0.000000e+00, 5.724634e+01, 0.000000e+00, 1.401665e+02, 0.000000e+00
1027, 7, 3.431949e+02, 0.000000e+00, 5.724634e+01, 0.000000e+00, 1.401665e+02, 0.000000e+00
1027, 8, 3.431949e+02, 0.000000e+00, 5.724634e+01, 0.000000e+00, 1.401665e+02, 0.000000e+00
1028, 1, 3.421348e+02, 0.000000e+00, 5.954414e+01, 0.000000e+00, 1.427309e+02, 0.000000e+00
1028, 2, 3.421348e+02, 0.000000e+00, 5.954414e+01, 0.000000e+00, 1.427309e+02, 0.000000e+00
1028, 3, 3.421348e+02, 0.000000e+00, 5.954414e+01, 0.000000e+00, 1.427309e+02, 0.000000e+00
1028, 4, 3.421348e+02, 0.000000e+00, 5.954414e+01, 0.000000e+00, 1.427309e+02, 0.000000e+00
1028, 5, 3.421348e+02, 0.000000e+00, 5.954414e+01, 0.000000e+00, 1.427309e+02, 0.000000e+00
1028, 6, 3.421348e+02, 0.000000e+00, 5.954414e+01, 0.000000e+00, 1.427309e+02, 0.000000e+00
1028, 7, 3.421348e+02, 0.000000e+00, 5.954414e+01, 0.000000e+00, 1.427309e+02, 0.000000e+00
1028, 8, 3.421348e+02, 0.000000e+00, 5.954414e+01, 0.000000e+00, 1.427309e+02, 0.000000e+00
1029, 1, 3.417906e+02, 0.000000e+00, 6.029293e+01, 0.000000e+00, 1.435533e+02, 0.000000e+00
1029, 2, 3.417906e+02, 0.000000e+00, 6.029293e+01, 0.000000e+00, 1.435533e+02, 0.000000e+00
1029, 3, 3.417906e+02, 0.000000e+00, 6.029293e+01, 0.000000e+00, 1.435533e+02, 0.000000e+00
1029, 4, 3.417906e+02, 0.000000e+00, 6.029293e+01, 0.000000e+00, 1.435533e+02, 0.000000e+00
1029, 5, 3.417906e+02, 0.000000e+00, 6.029293e+01, 0.000000e+00, 1.435533e+02, 0.000000e+00
1029, 6, 3.417906e+02, 0.000000e+00, 6.029293e+01, 0.000000e+00, 1.435533e+02, 0.000000e+00
1029, 7, 3.417906e+02, 0.000000e+00, 6.029293e+01, 0.000000e+00, 1.435533e+02, 0.000000e+00
1029, 8, 3.417906e+02, 0.000000e+00, 6.029293e+01, 0.000000e+00, 1.435533e+02, 0.000000e+00
1030, 1, 3.414575e+02, 0.000000e+00, 6.101282e+01, 0.000000e+00, 1.443374e+02, 0.000000e+00
1030, 2, 3.414575e+02, 0.000000e+00, 6.101282e+01, 0.000000e+00, 1.443374e+02, 0.000000e+00
1030, 3, 3.414575e+02, 0.000000e+00, 6.101282e+01, 0.000000e+00, 1.443374e+02, 0.000000e+00
1030, 4, 3.414575e+02, 0.000000e+00, 6.101282e+01, 0.000000e+00, 1.443374e+02, 0.000000e+00
1030, 5, 3.414575e+02, 0.000000e+00, 6.101282e+01, 0.000000e+00, 1.443374e+02, 0.000000e+00
1030, 6, 3.414575e+02, 0.000000e+00, 6.101282e+01, 0.000000e+00, 1.443374e+02, 0.000000e+00
1030, 7, 3.414575e+02, 0.000000e+00, 6.101282e+01, 0.000000e+00, 1.443374e+02, 0.000000e+00
1030, 8, 3.414575e+02, 0.000000e+00, 6.101282e+01, 0.000000e+00, 1.443374e+02, 0.000000e+00
1031, 1, 3.411258e+02, 0.000000e+00, 6.173722e+01, 0.000000e+00, 1.451212e+02, 0.000000e+00
1031, 2, 3.411258e+02, 0.000000e+00, 6.173722e+01, 0.000000e+00, 1.451212e+02, 0.000000e+00
1031, 3, 3.411258e+02, 0.000000e+00, 6.173722e+01, 0.000000e+00, 1.451212e+02, 0.000000e+00
1031, 4, 3.411258e+02, 0.000000e+00, 6.173722e+01, 0.000000e+00, 1.451212e+02, 0.000000e+00
1031, 5, 3.411258e+02, 0.000000e+00, 6.173722e+01, 0.000000e+00, 1.451212e+02, 0.000000e+00
1031, 6, 3.411258e+02, 0.000000e+00, 6.173722e+01, 0.000000e+00, 1.451212e+02, 0.000000e+00
1031, 7, 3.411258e+02, 0.000000e+00, 6.173722e+01, 0.000000e+00, 1.451212e+02, 0.000000e+00
1031, 8, 3.411258e+02, 0.000000e+00, 6.173722e+01, 0.000000e+00, 1.451212e+02, 0.000000e+00
1032, 1, 3.407803e+02, 0.000000e+00, 6.249930e+01, 0.000000e+00, 1.459402e+02, 0.000000e+00
1032, 2, 3.407803e+02, 0.000000e+00, 6.249930e+01, 0.000000e+00, 1.459402e+02, 0.000000e+00
1032, 3, 3.407803e+02, 0.000000e+00, 6.249930e+01, 0.000000e+00, 1.459402e+02, 0.000000e+00
1032, 4, 3.407803e+02, 0.000000e+00, 6.249930e+01, 0.000000e+00, 1.459402e+02, 0.000000e+00
1032, 5, 3.407803e+02, 0.000000e+00, 6.249930e+01, 0.000000e+00, 1.459402e+02, 0.000000e+00
1032, 6, 3.407803e+02, 0.000000e+00, 6.249930e+01, 0.000000e+00, 1.459402e+02, 0.000000e+00
1032, 7, 3.407803e+02, 0.000000e+00, 6.249930e+01, 0.000000e+00, 1.459402e+02, 0.000000e+00
1032, 8, 3.407803e+02, 0.000000e+00, 6.249930e+01, 0.000000e+00, 1.459402e+02, 0.000000e+00
1033, 1, 3.395499e+02, 0.000000e+00, 6.518150e+01, 0.000000e+00, 1.487695e+02, 0.000000e+00
1033, 2, 3.395499e+02, 0.000000e+00, 6.518150e+01, 0.000000e+00, 1.487695e+02, 0.000000e+00
1033, 3, 3.395499e+02, 0.000000e+00, 6.518150e+01, 0.000000e+00, 1.487695e+02, 0.000000e+00
1033, 4, 3.395499e+02, 0.000000e+00, 6.518150e+01, 0.000000e+00, 1.487695e+02, 0.000000e+00
1033, 5, 3.395499e+02, 0.000000e+00, 6.518150e+01, 0.000000e+00, 1.487695e+02, 0.000000e+00
1033, 6, 3.395499e+02, 0.000000e+00, 6.518150e+01, 0.000000e+00, 1.487695e+02, 0.000000e+00
1033, 7, 3.395499e+02, 0.000000e+00, 6.518150e+01, 0.000000e+00, 1.487695e+02, 0.000000e+00
1033, 8, 3.395499e+02, 0.000000e+00, 6.518150e+01, 0.000000e+00, 1.487695e+02, 0.000000e+00
1034, 1, 3.391969e+02, 0.000000e+00, 6.596291e+01, 0.000000e+00, 1.495808e+02, 0.000000e+00
1034, 2, 3.391969e+02, 0.000000e+00, 6.596291e+01, 0.000000e+00, 1.495808e+02, 0.000000e+00
1034, 3, 3.391969e+02, 0.000000e+00, 6.596291e+01, 0.000000e+00, 1.495808e+02, 0.000000e+00
1034, 4, 3.391969e+02, 0.000000e+00, 6.596291e+01, 0.000000e+00, 1.495808e+02, 0.000000e+00
1034, 5, 3.391969e+02, 0.000000e+00, 6.596291e+01, 0.000000e+00, 1.495808e+02, 0.000000e+00
1034, 6, 3.391969e+02, 0.000000e+00, 6.596291e+01, 0.000000e+00, 1.495808e+02, 0.000000e+00
1034, 7, 3.391969e+02, 0.000000e+00, 6.596291e+01, 0.000000e+00, 1.495808e+02, 0.000000e+00
1034, 8, 3.391969e+02, 0.000000e+00, 6.596291e+01, 0.000000e+00, 1.495808e+02, 0.000000e+00
1035, 1, 3.388563e+02, 0.000000e+00, 6.671409e+01, 0.000000e+00, 1.503546e+02, 0.000000e+00
1035, 2, 3.388563e+02, 0.000000e+00, 6.671409e+01, 0.000000e+00, 1.503546e+02, 0.000000e+00
1035, 3, 3.388563e+02, 0.000000e+00, 6.671409e+01, 0.000000e+00, 1.503546e+02, 0.000000e+00
1035, 4, 3.388563e+02, 0.000000e+00, 6.671409e+01, 0.000000e+00, 1.503546e+02, 0.000000e+00
1035, 5, 3.388563e+02, 0.000000e+00, 6.671409e+01, 0.000000e+00, 1.503546e+02, 0.000000e+00
1035, 6, 3.388563e+02, 0.000000e+00, 6.671409e+01, 0.000000e+00, 1.503546e+02, 0.000000e+00
1035, 7, 3.388563e+02, 0.000000e+00, 6.671409e+01, 0.000000e+00, 1.503546e+02, 0.000000e+00
1035, 8, 3.388563e+02, 0.000000e+00, 6.671409e+01, 0.000000e+00, 1.503546e+02, 0.000000e+00
1036, 1, 3.385122e+02, 0.000000e+00, 6.746879e+01, 0.000000e+00, 1.511258e+02, 0.000000e+00
1036, 2, 3.385122e+02, 0.000000e+00, 6.746879e+01, 0.000000e+00, 1.511258e+02, 0.000000e+00
1036, 3, 3.385122e+02, 0.000000e+00, 6.746879e+01, 0.000000e+00, 1.511258e+02, 0.000000e+00
1036, 4, 3.385122e+02, 0.000000e+00, 6.746879e+01, 0.000000e+00, 1.511258e+02, 0.000000e+00
1036, 5, 3.385122e+02, 0.000000e+00, 6.746879e+01, 0.000000e+00, 1.511258e+02, 0.000000e+00
1036, 6, 3.385122e+02, 0.000000e+00, 6.746879e+01, 0.000000e+00, 1.511258e+02, 0.000000e+00
1036, 7, 3.385122e+02, 0.000000e+00, 6.746879e+01, 0.000000e+00, 1.511258e+02, 0.000000e+00
1036, 8, 3.385122e+02, 0.000000e+00, 6.746879e+01, 0.000000e+00, 1.511258e+02, 0.000000e+00
1037, 1, 3.381529e+02, 0.000000e+00, 6.826241e+01, 0.000000e+00, 1.519314e+02, 0.000000e+00
1037, 2, 3.381529e+02, 0.000000e+00, 6.826241e+01, 0.000000e+00, 1.519314e+02, 0.000000e+00
1037, 3, 3.381529e+02, 0.000000e+00, 6.826241e+01, 0.000000e+00, 1.519314e+02, 0.000000e+00
1037, 4, 3.381529e+02, 0.000000e+00, 6.826241e+01, 0.000000e+00, 1.519314e+02, 0.000000e+00
1037, 5, 3.381529e+02, 0.000000e+00, 6.826241e+01, 0.000000e+00, 1.519314e+02, 0.000000e+00
1037, 6, 3.381529e+02, 0.000000e+00, 6.826241e+01, 0.000000e+00, 1.519314e+02, 0.000000e+00
1037, 7, 3.381529e+02, 0.000000e+00, 6.826241e+01, 0.000000e+00, 1.519314e+02, 0.000000e+00
1037, 8, 3.381529e+02, 0.000000e+00, 6.826241e+01, 0.000000e+00, 1.519314e+02, 0.000000e+00
1038, 1, 3.370363e+02, 0.000000e+00, 7.072979e+01, 0.000000e+00, 1.543972e+02, 0.000000e+00
1038, 2, 3.370363e+02, 0.000000e+00, 7.072979e+01, 0.000000e+00, 1.543972e+02, 0.000000e+00
1038, 3, 3.370363e+02, 0.000000e+00, 7.072979e+01, 0.000000e+00, 1.543972e+02, 0.000000e+00
1038, 4, 3.370363e+02, 0.000000e+00, 7.072979e+01, 0.000000e+00, 1.543972e+02, 0.000000e+00
1038, 5, 3.370363e+02, 0.000000e+00, 7.072979e+01, 0.000000e+00, 1.543972e+02, 0.000000e+00
1038, 6, 3.370363e+02, 0.000000e+00, 7.072979e+01, 0.000000e+00, 1.543972e+02, 0.000000e+00
1038, 7, 3.370363e+02, 0.000000e+00, 7.072979e+01, 0.000000e+00, 1.543972e+02, 0.000000e+00
1038, 8, 3.370363e+02, 0.000000e+00, 7.072979e+01, 0.000000e+00, 1.543972e+02, 0.000000e+00
1039, 1, 3.366665e+02, 0.000000e+00, 7.153990e+01, 0.000000e+00, 1.551937e+02, 0.000000e+00
1039, 2, 3.366665e+02, 0.000000e+00, 7.153990e+01, 0.000000e+00, 1.551937e+02, 0.000000e+00
1039, 3, 3.366665e+02, 0.000000e+00, 7.153990e+01, 0.000000e+00, 1.551937e+02, 0.000000e+00
1039, 4, 3.366665e+02, 0.000000e+00, 7.153990e+01, 0.000000e+00, 1.551937e+02, 0.000000e+00
1039, 5, 3.366665e+02, 0.000000e+00, 7.153990e+01, 0.000000e+00, 1.551937e+02, 0.000000e+00
1039, 6, 3.366665e+02, 0.000000e+00, 7.153990e+01, 0.000000e+00, 1.551937e+02, 0.000000e+00
1039, 7, 3.366665e+02, 0.000000e+00, 7.153990e+01, 0.000000e+00, 1.551937e+02, 0.000000e+00
1039, 8, 3.366665e+02, 0.000000e+00, 7.153990e+01, 0.000000e+00, 1.551937e+02, 0.000000e+00
1040, 1, 3.363103e+02, 0.000000e+00, 7.231854e+01, 0.000000e+00, 1.559534e+02, 0.000000e+00
1040, 2, 3.363103e+02, 0.000000e+00, 7.231854e+01, 0.000000e+00, 1.559534e+02, 0.000000e+00
1040, 3, 3.363103e+02, 0.000000e+00, 7.231854e+01, 0.000000e+00, 1.559534e+02, 0.000000e+00
1040, 4, 3.363103e+02, 0.000000e+00, 7.231854e+01, 0.000000e+00, 1.559534e+02, 0.000000e+00
1040, 5, 3.363103e+02, 0.000000e+00, 7.231854e+01, 0.000000e+00, 1.559534e+02, 0.000000e+00
1040, 6, 3.363103e+02, 0.000000e+00, 7.231854e+01, 0.000000e+00, 1.559534e+02, 0.000000e+00
1040, 7, 3.363103e+02, 0.000000e+00, 7.231854e+01, 0.000000e+00, 1.559534e+02, 0.000000e+00
1040, 8, 3.363103e+02, 0.000000e+00, 7.231854e+01, 0.000000e+00, 1.559534e+02, 0.000000e+00
1041, 1, 3.359605e+02, 0.000000e+00, 7.310273e+01, 0.000000e+00, 1.567151e+02, 0.000000e+00
1041, 2, 3.359605e+02, 0.000000e+00, 7.310273e+01, 0.000000e+00, 1.567151e+02, 0.000000e+00
1041, 3, 3.359605e+02, 0.000000e+00, 7.310273e+01, 0.000000e+00, 1.567151e+02, 0.000000e+00
1041, 4, 3.359605e+02, 0.000000e+00, 7.310273e+01, 0.000000e+00, 1.567151e+02, 0.000000e+00
1041, 5, 3.359605e+02, 0.000000e+00, 7.310273e+01, 0.000000e+00, 1.567151e+02, 0.000000e+00
1041, 6, 3.359605e+02, 0.000000e+00, 7.310273e+01, 0.000000e+00, 1.567151e+02, 0.000000e+00
1041, 7, 3.359605e+02, 0.000000e+00, 7.310273e+01, 0.000000e+00, 1.567151e+02, 0.000000e+00
1041, 8, 3.359605e+02, 0.000000e+00, 7.310273e+01, 0.000000e+00, 1.567151e+02, 0.000000e+00
1042, 1, 3.355866e+02, 0.000000e+00, 7.392883e+01, 0.000000e+00, 1.575104e+02, 0.000000e+00
1042, 2, 3.355866e+02, 0.000000e+00, 7.392883e+01, 0.000000e+00, 1.575104e+02, 0.000000e+00
1042, 3, 3.355866e+02, 0.000000e+00, 7.392883e+01, 0.000000e+00, 1.575104e+02, 0.000000e+00
1042, 4, 3.355866e+02, 0.000000e+00, 7.392883e+01, 0.000000e+00, 1.575104e+02, 0.000000e+00
1042, 5, 3.355866e+02, 0.000000e+00, 7.392883e+01, 0.000000e+00, 1.575104e+02, 0.000000e+00
1042, 6, 3.355866e+02, 0.000000e+00, 7.392883e+01, 0.000000e+00, 1.575104e+02, 0.000000e+00
1042, 7, 3.355866e+02, 0.000000e+00, 7.392883e+01, 0.000000e+00, 1.575104e+02, 0.000000e+00
1042, 8, 3.355866e+02, 0.000000e+00, 7.392883e+01, 0.000000e+00, 1.575104e+02, 0.000000e+00
1043, 1, 3.344450e+02, 0.000000e+00, 7.647467e+01, 0.000000e+00, 1.599268e+02, 0.000000e+00
1043, 2, 3.344450e+02, 0.000000e+00, 7.647467e+01, 0.000000e+00, 1.599268e+02, 0.000000e+00
1043, 3, 3.344450e+02, 0.000000e+00, 7.647467e+01, 0.000000e+00, 1.599268e+02, 0.000000e+00
1043, 4, 3.344450e+02, 0.000000e+00, 7.647467e+01, 0.000000e+00, 1.599268e+02, 0.000000e+00
1043, 5, 3.344450e+02, 0.000000e+00, 7.647467e+01, 0.000000e+00, 1.599268e+02, 0.000000e+00
1043, 6, 3.344450e+02, 0.000000e+00, 7.647467e+01, 0.000000e+00, 1.599268e+02, 0.000000e+00
1043, 7, 3.344450e+02, 0.000000e+00, 7.647467e+01, 0.000000e+00, 1.599268e+02, 0.000000e+00
1043, 8, 3.344450e+02, 0.000000e+00, 7.647467e+01, 0.000000e+00, 1.599268e+02, 0.000000e+00
1044, 1, 3.340685e+02, 0.000000e+00, 7.731530e+01, 0.000000e+00, 1.607128e+02, 0.000000e+00
1044, 2, 3.340685e+02, 0.000000e+00, 7.731530e+01, 0.000000e+00, 1.607128e+02, 0.000000e+00
1044, 3, 3.340685e+02, 0.000000e+00, 7.731530e+01, 0.000000e+00, 1.607128e+02, 0.000000e+00
1044, 4, 3.340685e+02, 0.000000e+00, 7.731530e+01, 0.000000e+00, 1.607128e+02, 0.000000e+00
1044, 5, 3.340685e+02, 0.000000e+00, 7.731530e+01, 0.000000e+00, 1.607128e+02, 0.000000e+00
1044, 6, 3.340685e+02, 0.000000e+00, 7.731530e+01, 0.000000e+00, 1.607128e+02, 0.000000e+00
1044, 7, 3.340685e+02, 0.000000e+00, 7.731530e+01, 0.000000e+00, 1.607128e+02, 0.000000e+00
1044, 8, 3.340685e+02, 0.000000e+00, 7.731530e+01, 0.000000e+00, 1.607128e+02, 0.000000e+00
1045, 1, 3.337022e+02, 0.000000e+00, 7.812191e+01, 0.000000e+00, 1.614604e+02, 0.000000e+00
1045, 2, 3.337022e+02, 0.000000e+00, 7.812191e+01, 0.000000e+00, 1.614604e+02, 0.000000e+00
1045, 3, 3.337022e+02, 0.000000e+00, 7.812191e+01, 0.000000e+00, 1.614604e+02, 0.000000e+00
1045, 4, 3.337022e+02, 0.000000e+00, 7.812191e+01, 0.000000e+00, 1.614604e+02, 0.000000e+00
1045, 5, 3.337022e+02, 0.000000e+00, 7.812191e+01, 0.000000e+00, 1.614604e+02, 0.000000e+00
1045, 6, 3.337022e+02, 0.000000e+00, 7.812191e+01, 0.000000e+00, 1.614604e+02, 0.000000e+00
1045, 7, 3.337022e+02, 0.000000e+00, 7.812191e+01, 0.000000e+00, 1.614604e+02, 0.000000e+00
1045, 8, 3.337022e+02, 0.000000e+00, 7.812191e+01, 0.000000e+00, 1.614604e+02, 0.000000e+00
1046, 1, 3.333374e+02, 0.000000e+00, 7.893299e+01, 0.000000e+00, 1.622076e+02, 0.000000e+00
1046, 2, 3.333374e+02, 0.000000e+00, 7.893299e+01, 0.000000e+00, 1.622076e+02, 0.000000e+00
1046, 3, 3.333374e+02, 0.000000e+00, 7.893299e+01, 0.000000e+00, 1.622076e+02, 0.000000e+00
1046, 4, 3.333374e+02, 0.000000e+00, 7.893299e+01, 0.000000e+00, 1.622076e+02, 0.000000e+00
1046, 5, 3.333374e+02, 0.000000e+00, 7.893299e+01, 0.000000e+00, 1.622076e+02, 0.000000e+00
1046, 6, 3.333374e+02, 0.000000e+00, 7.893299e+01, 0.000000e+00, 1.622076e+02, 0.000000e+00
1046, 7, 3.333374e+02, 0.000000e+00, 7.893299e+01, 0.000000e+00, 1.622076e+02, 0.000000e+00
1046, 8, 3.333374e+02, 0.000000e+00, 7.893299e+01, 0.000000e+00, 1.622076e+02, 0.000000e+00
1047, 1, 3.329603e+02, 0.000000e+00, 7.978612e+01, 0.000000e+00, 1.629896e+02, 0.000000e+00
1047, 2, 3.329603e+02, 0.000000e+00, 7.978612e+01, 0.000000e+00, 1.629896e+02, 0.000000e+00
1047, 3, 3.329603e+02, 0.000000e+00, 7.978612e+01, 0.000000e+00, 1.629896e+02, 0.000000e+00
1047, 4, 3.329603e+02, 0.000000e+00, 7.978612e+01, 0.000000e+00, 1.629896e+02, 0.000000e+00
1047, 5, 3.329603e+02, 0.000000e+00, 7.978612e+01, 0.000000e+00, 1.629896e+02, 0.000000e+00
1047, 6, 3.329603e+02, 0.000000e+00, 7.978612e+01, 0.000000e+00, 1.629896e+02, 0.000000e+00
1047, 7, 3.329603e+02, 0.000000e+00, 7.978612e+01, 0.000000e+00, 1.629896e+02, 0.000000e+00
1047, 8, 3.329603e+02, 0.000000e+00, 7.978612e+01, 0.000000e+00, 1.629896e+02, 0.000000e+00
1048, 1, 3.316467e+02, 0.000000e+00, 8.273608e+01, 0.000000e+00, 1.656477e+02, 0.000000e+00
1048, 2, 3.316467e+02, 0.000000e+00, 8.273608e+01, 0.000000e+00, 1.656477e+02, 0.000000e+00
1048, 3, 3.316467e+02, 0.000000e+00, 8.273608e+01, 0.000000e+00, 1.656477e+02, 0.000000e+00
1048, 4, 3.316467e+02, 0.000000e+00, 8.273608e+01, 0.000000e+00, 1.656477e+02, 0.000000e+00
1048, 5, 3.316467e+02, 0.000000e+00, 8.273608e+01, 0.000000e+00, 1.656477e+02, 0.000000e+00
1048, 6, 3.316467e+02, 0.000000e+00, 8.273608e+01, 0.000000e+00, 1.656477e+02, 0.000000e+00
1048, 7, 3.316467e+02, 0.000000e+00, 8.273608e+01, 0.000000e+00, 1.656477e+02, 0.000000e+00
1048, 8, 3.316467e+02, 0.000000e+00, 8.273608e+01, 0.000000e+00, 1.656477e+02, 0.000000e+00
1049, 1, 3.312626e+02, 0.000000e+00, 8.360805e+01, 0.000000e+00, 1.664218e+02, 0.000000e+00
1049, 2, 3.312626e+02, 0.000000e+00, 8.360805e+01, 0.000000e+00, 1.664218e+02, 0.000000e+00
1049, 3, 3.312626e+02, 0.000000e+00, 8.360805e+01, 0.000000e+00, 1.664218e+02, 0.000000e+00
1049, 4, 3.312626e+02, 0.000000e+00, 8.360805e+01, 0.000000e+00, 1.664218e+02, 0.000000e+00
1049, 5, 3.312626e+02, 0.000000e+00, 8.360805e+01, 0.000000e+00, 1.664218e+02, 0.000000e+00
1049, 6, 3.312626e+02, 0.000000e+00, 8.360805e+01, 0.000000e+00, 1.664218e+02, 0.000000e+00
1049, 7, 3.312626e+02, 0.000000e+00, 8.360805e+01, 0.000000e+00, 1.664218e+02, 0.000000e+00
1049, 8, 3.312626e+02, 0.000000e+00, 8.360805e+01, 0.000000e+00, 1.664218e+02, 0.000000e+00
1050, 1, 3.308900e+02, 0.000000e+00, 8.444476e+01, 0.000000e+00, 1.671584e+02, 0.000000e+00
1050, 2, 3.308900e+02, 0.000000e+00, 8.444476e+01, 0.000000e+00, 1.671584e+02, 0.000000e+00
1050, 3, 3.308900e+02, 0.000000e+00, 8.444476e+01, 0.000000e+00, 1.671584e+02, 0.000000e+00
1050, 4, 3.308900e+02, 0.000000e+00, 8.444476e+01, 0.000000e+00, 1.671584e+02, 0.000000e+00
1050, 5, 3.308900e+02, 0.000000e+00, 8.444476e+01, 0.000000e+00, 1.671584e+02, 0.000000e+00
1050, 6, 3.308900e+02, 0.000000e+00, 8.444476e+01, 0.000000e+00, 1.671584e+02, 0.000000e+00
1050, 7, 3.308900e+02, 0.000000e+00, 8.444476e+01, 0.000000e+00, 1.671584e+02, 0.000000e+00
1050, 8, 3.308900e+02, 0.000000e+00, 8.444476e+01, 0.000000e+00, 1.671584e+02, 0.000000e+00
1051, 1, 3.305142e+02, 0.000000e+00, 8.528474e+01, 0.000000e+00, 1.678923e+02, 0.000000e+00
1051, 2, 3.305142e+02, 0.000000e+00, 8.528474e+01, 0.000000e+00, 1.678923e+02, 0.000000e+00
1051, 3, 3.305142e+02, 0.000000e+00, 8.528474e+01, 0.000000e+00, 1.678923e+02, 0.000000e+00
1051, 4, 3.305142e+02, 0.000000e+00, 8.528474e+01, 0.000000e+00, 1.678923e+02, 0.000000e+00
1051, 5, 3.305142e+02, 0.000000e+00, 8.528474e+01, 0.000000e+00, 1.678923e+02, 0.000000e+00
1051, 6, 3.305142e+02, 0.000000e+00, 8.528474e+01, 0.000000e+00, 1.678923e+02, 0.000000e+00
1051, 7, 3.305142e+02, 0.000000e+00, 8.528474e+01, 0.000000e+00, 1.678923e+02, 0.000000e+00
1051, 8, 3.305142e+02, 0.000000e+00, 8.528474e+01, 0.000000e+00, 1.678923e+02, 0.000000e+00
1052, 1, 3.301248e+02, 0.000000e+00, 8.616797e+01, 0.000000e+00, 1.686600e+02, 0.000000e+00
1052, 2, 3.301248e+02, 0.000000e+00, 8.616797e+01, 0.000000e+00, 1.686600e+02, 0.000000e+00
1052, 3, 3.301248e+02, 0.000000e+00, 8.616797e+01, 0.000000e+00, 1.686600e+02, 0.000000e+00
1052, 4, 3.301248e+02, 0.000000e+00, 8.616797e+01, 0.000000e+00, 1.686600e+02, 0.000000e+00
1052, 5, 3.301248e+02, 0.000000e+00, 8.616797e+01, 0.000000e+00, 1.686600e+02, 0.000000e+00
1052, 6, 3.301248e+02, 0.000000e+00, 8.616797e+01, 0.000000e+00, 1.686600e+02, 0.000000e+00
1052, 7, 3.301248e+02, 0.000000e+00, 8.616797e+01, 0.000000e+00, 1.686600e+02, 0.000000e+00
1052, 8, 3.301248e+02, 0.000000e+00, 8.616797e+01, 0.000000e+00, 1.686600e+02, 0.000000e+00
1053, 1, 3.289367e+02, 0.000000e+00, 8.886745e+01, 0.000000e+00, 1.709730e+02, 0.000000e+00
1053, 2, 3.289367e+02, 0.000000e+00, 8.886745e+01, 0.000000e+00, 1.709730e+02, 0.000000e+00
1053, 3, 3.289367e+02, 0.000000e+00, 8.886745e+01, 0.000000e+00, 1.709730e+02, 0.000000e+00
1053, 4, 3.289367e+02, 0.000000e+00, 8.886745e+01, 0.000000e+00, 1.709730e+02, 0.000000e+00
1053, 5, 3.289367e+02, 0.000000e+00, 8.886745e+01, 0.000000e+00, 1.709730e+02, 0.000000e+00
1053, 6, 3.289367e+02, 0.000000e+00, 8.886745e+01, 0.000000e+00, 1.709730e+02, 0.000000e+00
1053, 7, 3.289367e+02, 0.000000e+00, 8.886745e+01, 0.000000e+00, 1.709730e+02, 0.000000e+00
1053, 8, 3.289367e+02, 0.000000e+00, 8.886745e+01, 0.000000e+00, 1.709730e+02, 0.000000e+00
1054, 1, 3.285375e+02, 0.000000e+00, 8.976652e+01, 0.000000e+00, 1.717314e+02, 0.000000e+00
1054, 2, 3.285375e+02, 0.000000e+00, 8.976652e+01, 0.000000e+00, 1.717314e+02, 0.000000e+00
1054, 3, 3.285375e+02, 0.000000e+00, 8.976652e+01, 0.000000e+00, 1.717314e+02, 0.000000e+00
1054, 4, 3.285375e+02, 0.000000e+00, 8.976652e+01, 0.000000e+00, 1.717314e+02, 0.000000e+00
1054, 5, 3.285375e+02, 0.000000e+00, 8.976652e+01, 0.000000e+00, 1.717314e+02, 0.000000e+00
1054, 6, 3.285375e+02, 0.000000e+00, 8.976652e+01, 0.000000e+00, 1.717314e+02, 0.000000e+00
1054, 7, 3.285375e+02, 0.000000e+00, 8.976652e+01, 0.000000e+00, 1.717314e+02, 0.000000e+00
1054, 8, 3.285375e+02, 0.000000e+00, 8.976652e+01, 0.000000e+00, 1.717314e+02, 0.000000e+00
1055, 1, 3.281555e+02, 0.000000e+00, 9.063044e+01, 0.000000e+00, 1.724554e+02, 0.000000e+00
1055, 2, 3.281555e+02, 0.000000e+00, 9.063044e+01, 0.000000e+00, 1.724554e+02, 0.000000e+00
1055, 3, 3.281555e+02, 0.000000e+00, 9.063044e+01, 0.000000e+00, 1.724554e+02, 0.000000e+00
1055, 4, 3.281555e+02, 0.000000e+00, 9.063044e+01, 0.000000e+00, 1.724554e+02, 0.000000e+00
1055, 5, 3.281555e+02, 0.000000e+00, 9.063044e+01, 0.000000e+00, 1.724554e+02, 0.000000e+00
1055, 6, 3.281555e+02, 0.000000e+00, 9.063044e+01, 0.000000e+00, 1.724554e+02, 0.000000e+00
1055, 7, 3.281555e+02, 0.000000e+00, 9.063044e+01, 0.000000e+00, 1.724554e+02, 0.000000e+00
1055, 8, 3.281555e+02, 0.000000e+00, 9.063044e+01, 0.000000e+00, 1.724554e+02, 0.000000e+00
1056, 1, 3.277751e+02, 0.000000e+00, 9.149884e+01, 0.000000e+00, 1.731792e+02, 0.000000e+00
1056, 2, 3.277751e+02, 0.000000e+00, 9.149884e+01, 0.000000e+00, 1.731792e+02, 0.000000e+00
1056, 3, 3.277751e+02, 0.000000e+00, 9.149884e+01, 0.000000e+00, 1.731792e+02, 0.000000e+00
1056, 4, 3.277751e+02, 0.000000e+00, 9.149884e+01, 0.000000e+00, 1.731792e+02, 0.000000e+00
1056, 5, 3.277751e+02, 0.000000e+00, 9.149884e+01, 0.000000e+00, 1.731792e+02, 0.000000e+00
1056, 6, 3.277751e+02, 0.000000e+00, 9.149884e+01, 0.000000e+00, 1.731792e+02, 0.000000e+00
1056, 7, 3.277751e+02, 0.000000e+00, 9.149884e+01, 0.000000e+00, 1.731792e+02, 0.000000e+00
1056, 8, 3.277751e+02, 0.000000e+00, 9.149884e+01, 0.000000e+00, 1.731792e+02, 0.000000e+00
1057, 1, 3.273753e+02, 0.000000e+00, 9.241031e+01, 0.000000e+00, 1.739335e+02, 0.000000e+00
1057, 2, 3.273753e+02, 0.000000e+00, 9.241031e+01, 0.000000e+00, 1.739335e+02, 0.000000e+00
1057, 3, 3.273753e+02, 0.000000e+00, 9.241031e+01, 0.000000e+00, 1.739335e+02, 0.000000e+00
1057, 4, 3.273753e+02, 0.000000e+00, 9.241031e+01, 0.000000e+00, 1.739335e+02, 0.000000e+00
1057, 5, 3.273753e+02, 0.000000e+00, 9.241031e+01, 0.000000e+00, 1.739335e+02, 0.000000e+00
1057, 6, 3.273753e+02, 0.000000e+00, 9.241031e+01, 0.000000e+00, 1.739335e+02, 0.000000e+00
1057, 7, 3.273753e+02, 0.000000e+00, 9.241031e+01, 0.000000e+00, 1.739335e+02, 0.000000e+00
1057, 8, 3.273753e+02, 0.000000e+00, 9.241031e+01, 0.000000e+00, 1.739335e+02, 0.000000e+00
1058, 1, 3.262026e+02, 0.000000e+00, 9.510033e+01, 0.000000e+00, 1.761306e+02, 0.000000e+00
1058, 2, 3.262026e+02, 0.000000e+00, 9.510033e+01, 0.000000e+00, 1.761306e+02, 0.000000e+00
1058, 3, 3.262026e+02, 0.000000e+00, 9.510033e+01, 0.000000e+00, 1.761306e+02, 0.000000e+00
1058, 4, 3.262026e+02, 0.000000e+00, 9.510033e+01, 0.000000e+00, 1.761306e+02, 0.000000e+00
1058, 5, 3.262026e+02, 0.000000e+00, 9.510033e+01, 0.000000e+00, 1.761306e+02, 0.000000e+00
1058, 6, 3.262026e+02, 0.000000e+00, 9.510033e+01, 0.000000e+00, 1.761306e+02, 0.000000e+00
1058, 7, 3.262026e+02, 0.000000e+00, 9.510033e+01, 0.000000e+00, 1.761306e+02, 0.000000e+00
1058, 8, 3.262026e+02, 0.000000e+00, 9.510033e+01, 0.000000e+00, 1.761306e+02, 0.000000e+00
1059, 1, 3.258493e+02, 0.000000e+00, 9.590590e+01, 0.000000e+00, 1.767791e+02, 0.000000e+00
1059, 2, 3.258493e+02, 0.000000e+00, 9.590590e+01, 0.000000e+00, 1.767791e+02, 0.000000e+00
1059, 3, 3.258493e+02, 0.000000e+00, 9.590590e+01, 0.000000e+00, 1.767791e+02, 0.000000e+00
1059, 4, 3.258493e+02, 0.000000e+00, 9.590590e+01, 0.000000e+00, 1.767791e+02, 0.000000e+00
1059, 5, 3.258493e+02, 0.000000e+00, 9.590590e+01, 0.000000e+00, 1.767791e+02, 0.000000e+00
1059, 6, 3.258493e+02, 0.000000e+00, 9.590590e+01, 0.000000e+00, 1.767791e+02, 0.000000e+00
1059, 7, 3.258493e+02, 0.000000e+00, 9.590590e+01, 0.000000e+00, 1.767791e+02, 0.000000e+00
1059, 8, 3.258493e+02, 0.000000e+00, 9.590590e+01, 0.000000e+00, 1.767791e+02, 0.000000e+00
1060, 1, 3.254976e+02, 0.000000e+00, 9.671573e+01, 0.000000e+00, 1.774281e+02, 0.000000e+00
1060, 2, 3.254976e+02, 0.000000e+00, 9.671573e+01, 0.000000e+00, 1.774281e+02, 0.000000e+00
1060, 3, 3.254976e+02, 0.000000e+00, 9.671573e+01, 0.000000e+00, 1.774281e+02, 0.000000e+00
1060, 4, 3.254976e+02, 0.000000e+00, 9.671573e+01, 0.000000e+00, 1.774281e+02, 0.000000e+00
1060, 5, 3.254976e+02, 0.000000e+00, 9.671573e+01, 0.000000e+00, 1.774281e+02, 0.000000e+00
1060, 6, 3.254976e+02, 0.000000e+00, 9.671573e+01, 0.000000e+00, 1.774281e+02, 0.000000e+00
1060, 7, 3.254976e+02, 0.000000e+00, 9.671573e+01, 0.000000e+00, 1.774281e+02, 0.000000e+00
1060, 8, 3.254976e+02, 0.000000e+00, 9.671573e+01, 0.000000e+00, 1.774281e+02, 0.000000e+00
1061, 1, 3.251602e+02, 0.000000e+00, 9.748744e+01, 0.000000e+00, 1.780422e+02, 0.000000e+00
1061, 2, 3.251602e+02, 0.000000e+00, 9.748744e+01, 0.000000e+00, 1.780422e+02, 0.000000e+00
1061, 3, 3.251602e+02, 0.000000e+00, 9.748744e+01, 0.000000e+00, 1.780422e+02, 0.000000e+00
1061, 4, 3.251602e+02, 0.000000e+00, 9.748744e+01, 0.000000e+00, 1.780422e+02, 0.000000e+00
1061, 5, 3.251602e+02, 0.000000e+00, 9.748744e+01, 0.000000e+00, 1.780422e+02, 0.000000e+00
1061, 6, 3.251602e+02, 0.000000e+00, 9.748744e+01, 0.000000e+00, 1.780422e+02, 0.000000e+00
1061, 7, 3.251602e+02, 0.000000e+00, 9.748744e+01, 0.000000e+00, 1.780422e+02, 0.000000e+00
1061, 8, 3.251602e+02, 0.000000e+00, 9.748744e+01, 0.000000e+00, 1.780422e+02, 0.000000e+00
1062, 1, 3.249788e+02, 0.000000e+00, 9.790686e+01, 0.000000e+00, 1.783750e+02, 0.000000e+00
1062, 2, 3.249788e+02, 0.000000e+00, 9.790686e+01, 0.000000e+00, 1.783750e+02, 0.000000e+00
1062, 3, 3.249788e+02, 0.000000e+00, 9.790686e+01, 0.000000e+00, 1.783750e+02, 0.000000e+00
1062, 4, 3.249788e+02, 0.000000e+00, 9.790686e+01, 0.000000e+00, 1.783750e+02, 0.000000e+00
1062, 5, 3.249788e+02, 0.000000e+00, 9.790686e+01, 0.000000e+00, 1.783750e+02, 0.000000e+00
1062, 6, 3.249788e+02, 0.000000e+00, 9.790686e+01, 0.000000e+00, 1.783750e+02, 0.000000e+00
1062, 7, 3.249788e+02, 0.000000e+00, 9.790686e+01, 0.000000e+00, 1.783750e+02, 0.000000e+00
1062, 8, 3.249788e+02, 0.000000e+00, 9.790686e+01, 0.000000e+00, 1.783750e+02, 0.000000e+00
1063, 1, 3.707137e+02, 0.000000e+00, 7.647773e-05, 0.000000e+00, -1.683786e-01, -0.000000e+00
1063, 2, 3.707137e+02, 0.000000e+00, 7.647773e-05, 0.000000e+00, -1.683786e-01, -0.000000e+00
1063, 3, 3.707137e+02, 0.000000e+00, 7.647773e-05, 0.000000e+00, -1.683786e-01, -0.000000e+00
1063, 4, 3.707137e+02, 0.000000e+00, 7.647773e-05, 0.000000e+00, -1.683786e-01, -0.000000e+00
1063, 5, 3.707137e+02, 0.000000e+00, 7.647773e-05, 0.000000e+00, -1.683786e-01, -0.000000e+00
1063, 6, 3.707137e+02, 0.000000e+00, 7.647773e-05, 0.000000e+00, -1.683786e-01, -0.000000e+00
1063, 7, 3.707137e+02, 0.000000e+00, 7.647773e-05, 0.000000e+00, -1.683786e-01, -0.000000e+00
1063, 8, 3.707137e+02, 0.000000e+00, 7.647773e-05, 0.000000e+00, -1.683786e-01, -0.000000e+00
1064, 1, 3.707137e+02, 0.000000e+00, 5.844523e-07, 0.000000e+00, -1.471953e-02, -0.000000e+00
1064, 2, 3.707137e+02, 0.000000e+00, 5.844523e-07, 0.000000e+00, -1.471953e-02, -0.000000e+00
1064, 3, 3.707137e+02, 0.000000e+00, 5.844523e-07, 0.000000e+00, -1.471953e-02, -0.000000e+00
1064, 4, 3.707137e+02, 0.000000e+00, 5.844523e-07, 0.000000e+00, -1.471953e-02, -0.000000e+00
1064, 5, 3.707137e+02, 0.000000e+00, 5.844523e-07, 0.000000e+00, -1.471953e-02, -0.000000e+00
1064, 6, 3.707137e+02, 0.000000e+00, 5.844523e-07, 0.000000e+00, -1.471953e-02, -0.000000e+00
1064, 7, 3.707137e+02, 0.000000e+00, 5.844523e-07, 0.000000e+00, -1.471953e-02, -0.000000e+00
1064, 8, 3.707137e+02, 0.000000e+00, 5.844523e-07, 0.000000e+00, -1.471953e-02, -0.000000e+00
1065, 1, 3.707137e+02, 0.000000e+00, 6.364585e-05, 0.000000e+00, 1.536046e-01, 0.000000e+00
1065, 2, 3.707137e+02, 0.000000e+00, 6.364585e-05, 0.000000e+00, 1.536046e-01, 0.000000e+00
1065, 3, 3.707137e+02, 0.000000e+00, 6.364585e-05, 0.000000e+00, 1.536046e-01, 0.000000e+00
1065, 4, 3.707137e+02, 0.000000e+00, 6.364585e-05, 0.000000e+00, 1.536046e-01, 0.000000e+00
1065, 5, 3.707137e+02, 0.000000e+00, 6.364585e-05, 0.000000e+00, 1.536046e-01, 0.000000e+00
1065, 6, 3.707137e+02, 0.000000e+00, 6.364585e-05, 0.000000e+00, 1.536046e-01, 0.000000e+00
1065, 7, 3.707137e+02, 0.000000e+00, 6.364585e-05, 0.000000e+00, 1.536046e-01, 0.000000e+00
1065, 8, 3.707137e+02, 0.000000e+00, 6.364585e-05, 0.000000e+00, 1.536046e-01, 0.000000e+00
1066, 1, 3.449379e+02, 0.000000e+00, 5.348629e+01, 0.000000e+00, -1.358287e+02, -0.000000e+00
1066, 2, 3.449379e+02, 0.000000e+00, 5.348629e+01, 0.000000e+00, -1.358287e+02, -0.000000e+00
1066, 3, 3.449379e+02, 0.000000e+00, 5.348629e+01, 0.000000e+00, -1.358287e+02, -0.000000e+00
1066, 4, 3.449379e+02, 0.000000e+00, 5.348629e+01, 0.000000e+00, -1.358287e+02, -0.000000e+00
1066, 5, 3.449379e+02, 0.000000e+00, 5.348629e+01, 0.000000e+00, -1.358287e+02, -0.000000e+00
1066, 6, 3.449379e+02, 0.000000e+00, 5.348629e+01, 0.000000e+00, -1.358287e+02, -0.000000e+00
1066, 7, 3.449379e+02, 0.000000e+00, 5.348629e+01, 0.000000e+00, -1.358287e+02, -0.000000e+00
1066, 8, 3.449379e+02, 0.000000e+00, 5.348629e+01, 0.000000e+00, -1.358287e+02, -0.000000e+00
1067, 1, 3.451059e+02, 0.000000e+00, 5.311588e+01, 0.000000e+00, -1.353906e+02, -0.000000e+00
1067, 2, 3.451059e+02, 0.000000e+00, 5.311588e+01, 0.000000e+00, -1.353906e+02, -0.000000e+00
1067, 3, 3.451059e+02, 0.000000e+00, 5.311588e+01, 0.000000e+00, -1.353906e+02, -0.000000e+00
1067, 4, 3.451059e+02, 0.000000e+00, 5.311588e+01, 0.000000e+00, -1.353906e+02, -0.000000e+00
1067, 5, 3.451059e+02, 0.000000e+00, 5.311588e+01, 0.000000e+00, -1.353906e+02, -0.000000e+00
1067, 6, 3.451059e+02, 0.000000e+00, 5.311588e+01, 0.000000e+00, -1.353906e+02, -0.000000e+00
1067, 7, 3.451059e+02, 0.000000e+00, 5.311588e+01, 0.000000e+00, -1.353906e+02, -0.000000e+00
1067, 8, 3.451059e+02, 0.000000e+00, 5.311588e+01, 0.000000e+00, -1.353906e+02, -0.000000e+00
1068, 1, 3.454052e+02, 0.000000e+00, 5.247150e+01, 0.000000e+00, -1.346251e+02, -0.000000e+00
1068, 2, 3.454052e+02, 0.000000e+00, 5.247150e+01, 0.000000e+00, -1.346251e+02, -0.000000e+00
1068, 3, 3.454052e+02, 0.000000e+00, 5.247150e+01, 0.000000e+00, -1.346251e+02, -0.000000e+00
1068, 4, 3.454052e+02, 0.000000e+00, 5.247150e+01, 0.000000e+00, -1.346251e+02, -0.000000e+00
1068, 5, 3.454052e+02, 0.000000e+00, 5.247150e+01, 0.000000e+00, -1.346251e+02, -0.000000e+00
1068, 6, 3.454052e+02, 0.000000e+00, 5.247150e+01, 0.000000e+00, -1.346251e+02, -0.000000e+00
1068, 7, 3.454052e+02, 0.000000e+00, 5.247150e+01, 0.000000e+00, -1.346251e+02, -0.000000e+00
1068, 8, 3.454052e+02, 0.000000e+00, 5.247150e+01, 0.000000e+00, -1.346251e+02, -0.000000e+00
1069, 1, 3.456883e+02, 0.000000e+00, 5.186114e+01, 0.000000e+00, -1.338947e+02, -0.000000e+00
1069, 2, 3.456883e+02, 0.000000e+00, 5.186114e+01, 0.000000e+00, -1.338947e+02, -0.000000e+00
1069, 3, 3.456883e+02, 0.000000e+00, 5.186114e+01, 0.000000e+00, -1.338947e+02, -0.000000e+00
1069, 4, 3.456883e+02, 0.000000e+00, 5.186114e+01, 0.000000e+00, -1.338947e+02, -0.000000e+00
1069, 5, 3.456883e+02, 0.000000e+00, 5.186114e+01, 0.000000e+00, -1.338947e+02, -0.000000e+00
1069, 6, 3.456883e+02, 0.000000e+00, 5.186114e+01, 0.000000e+00, -1.338947e+02, -0.000000e+00
1069, 7, 3.456883e+02, 0.000000e+00, 5.186114e+01, 0.000000e+00, -1.338947e+02, -0.000000e+00
1069, 8, 3.456883e+02, 0.000000e+00, 5.186114e+01, 0.000000e+00, -1.338947e+02, -0.000000e+00
1070, 1, 3.459683e+02, 0.000000e+00, 5.125388e+01, 0.000000e+00, -1.331624e+02, -0.000000e+00
1070, 2, 3.459683e+02, 0.000000e+00, 5.125388e+01, 0.000000e+00, -1.331624e+02, -0.000000e+00
1070, 3, 3.459683e+02, 0.000000e+00, 5.125388e+01, 0.000000e+00, -1.331624e+02, -0.000000e+00
1070, 4, 3.459683e+02, 0.000000e+00, 5.125388e+01, 0.000000e+00, -1.331624e+02, -0.000000e+00
1070, 5, 3.459683e+02, 0.000000e+00, 5.125388e+01, 0.000000e+00, -1.331624e+02, -0.000000e+00
1070, 6, 3.459683e+02, 0.000000e+00, 5.125388e+01, 0.000000e+00, -1.331624e+02, -0.000000e+00
1070, 7, 3.459683e+02, 0.000000e+00, 5.125388e+01, 0.000000e+00, -1.331624e+02, -0.000000e+00
1070, 8, 3.459683e+02, 0.000000e+00, 5.125388e+01, 0.000000e+00, -1.331624e+02, -0.000000e+00
1071, 1, 3.462504e+02, 0.000000e+00, 5.065049e+01, 0.000000e+00, -1.324302e+02, -0.000000e+00
1071, 2, 3.462504e+02, 0.000000e+00, 5.065049e+01, 0.000000e+00, -1.324302e+02, -0.000000e+00
1071, 3, 3.462504e+02, 0.000000e+00, 5.065049e+01, 0.000000e+00, -1.324302e+02, -0.000000e+00
1071, 4, 3.462504e+02, 0.000000e+00, 5.065049e+01, 0.000000e+00, -1.324302e+02, -0.000000e+00
1071, 5, 3.462504e+02, 0.000000e+00, 5.065049e+01, 0.000000e+00, -1.324302e+02, -0.000000e+00
1071, 6, 3.462504e+02, 0.000000e+00, 5.065049e+01, 0.000000e+00, -1.324302e+02, -0.000000e+00
1071, 7, 3.462504e+02, 0.000000e+00, 5.065049e+01, 0.000000e+00, -1.324302e+02, -0.000000e+00
1071, 8, 3.462504e+02, 0.000000e+00, 5.065049e+01, 0.000000e+00, -1.324302e+02, -0.000000e+00
1072, 1, 3.465592e+02, 0.000000e+00, 4.999065e+01, 0.000000e+00, -1.316234e+02, -0.000000e+00
1072, 2, 3.465592e+02, 0.000000e+00, 4.999065e+01, 0.000000e+00, -1.316234e+02, -0.000000e+00
1072, 3, 3.465592e+02, 0.000000e+00, 4.999065e+01, 0.000000e+00, -1.316234e+02, -0.000000e+00
1072, 4, 3.465592e+02, 0.000000e+00, 4.999065e+01, 0.000000e+00, -1.316234e+02, -0.000000e+00
1072, 5, 3.465592e+02, 0.000000e+00, 4.999065e+01, 0.000000e+00, -1.316234e+02, -0.000000e+00
1072, 6, 3.465592e+02, 0.000000e+00, 4.999065e+01, 0.000000e+00, -1.316234e+02, -0.000000e+00
1072, 7, 3.465592e+02, 0.000000e+00, 4.999065e+01, 0.000000e+00, -1.316234e+02, -0.000000e+00
1072, 8, 3.465592e+02, 0.000000e+00, 4.999065e+01, 0.000000e+00, -1.316234e+02, -0.000000e+00
1073, 1, 3.475556e+02, 0.000000e+00, 4.785773e+01, 0.000000e+00, -1.289698e+02, -0.000000e+00
1073, 2, 3.475556e+02, 0.000000e+00, 4.785773e+01, 0.000000e+00, -1.289698e+02, -0.000000e+00
1073, 3, 3.475556e+02, 0.000000e+00, 4.785773e+01, 0.000000e+00, -1.289698e+02, -0.000000e+00
1073, 4, 3.475556e+02, 0.000000e+00, 4.785773e+01, 0.000000e+00, -1.289698e+02, -0.000000e+00
1073, 5, 3.475556e+02, 0.000000e+00, 4.785773e+01, 0.000000e+00, -1.289698e+02, -0.000000e+00
1073, 6, 3.475556e+02, 0.000000e+00, 4.785773e+01, 0.000000e+00, -1.289698e+02, -0.000000e+00
1073, 7, 3.475556e+02, 0.000000e+00, 4.785773e+01, 0.000000e+00, -1.289698e+02, -0.000000e+00
1073, 8, 3.475556e+02, 0.000000e+00, 4.785773e+01, 0.000000e+00, -1.289698e+02, -0.000000e+00
1074, 1, 3.478702e+02, 0.000000e+00, 4.718611e+01, 0.000000e+00, -1.281196e+02, -0.000000e+00
1074, 2, 3.478702e+02, 0.000000e+00, 4.718611e+01, 0.000000e+00, -1.281196e+02, -0.000000e+00
1074, 3, 3.478702e+02, 0.000000e+00, 4.718611e+01, 0.000000e+00, -1.281196e+02, -0.000000e+00
1074, 4, 3.478702e+02, 0.000000e+00, 4.718611e+01, 0.000000e+00, -1.281196e+02, -0.000000e+00
1074, 5, 3.478702e+02, 0.000000e+00, 4.718611e+01, 0.000000e+00, -1.281196e+02, -0.000000e+00
1074, 6, 3.478702e+02, 0.000000e+00, 4.718611e+01, 0.000000e+00, -1.281196e+02, -0.000000e+00
1074, 7, 3.478702e+02, 0.000000e+00, 4.718611e+01, 0.000000e+00, -1.281196e+02, -0.000000e+00
1074, 8, 3.478702e+02, 0.000000e+00, 4.718611e+01, 0.000000e+00, -1.281196e+02, -0.000000e+00
1075, 1, 3.481693e+02, 0.000000e+00, 4.654786e+01, 0.000000e+00, -1.273049e+02, -0.000000e+00
1075, 2, 3.481693e+02, 0.000000e+00, 4.654786e+01, 0.000000e+00, -1.273049e+02, -0.000000e+00
1075, 3, 3.481693e+02, 0.000000e+00, 4.654786e+01, 0.000000e+00, -1.273049e+02, -0.000000e+00
1075, 4, 3.481693e+02, 0.000000e+00, 4.654786e+01, 0.000000e+00, -1.273049e+02, -0.000000e+00
1075, 5, 3.481693e+02, 0.000000e+00, 4.654786e+01, 0.000000e+00, -1.273049e+02, -0.000000e+00
1075, 6, 3.481693e+02, 0.000000e+00, 4.654786e+01, 0.000000e+00, -1.273049e+02, -0.000000e+00
1075, 7, 3.481693e+02, 0.000000e+00, 4.654786e+01, 0.000000e+00, -1.273049e+02, -0.000000e+00
1075, 8, 3.481693e+02, 0.000000e+00, 4.654786e+01, 0.000000e+00, -1.273049e+02, -0.000000e+00
1076, 1, 3.484698e+02, 0.000000e+00, 4.591412e+01, 0.000000e+00, -1.264899e+02, -0.000000e+00
1076, 2, 3.484698e+02, 0.000000e+00, 4.591412e+01, 0.000000e+00, -1.264899e+02, -0.000000e+00
1076, 3, 3.484698e+02, 0.000000e+00, 4.591412e+01, 0.000000e+00, -1.264899e+02, -0.000000e+00
1076, 4, 3.484698e+02, 0.000000e+00, 4.591412e+01, 0.000000e+00, -1.264899e+02, -0.000000e+00
1076, 5, 3.484698e+02, 0.000000e+00, 4.591412e+01, 0.000000e+00, -1.264899e+02, -0.000000e+00
1076, 6, 3.484698e+02, 0.000000e+00, 4.591412e+01, 0.000000e+00, -1.264899e+02, -0.000000e+00
1076, 7, 3.484698e+02, 0.000000e+00, 4.591412e+01, 0.000000e+00, -1.264899e+02, -0.000000e+00
1076, 8, 3.484698e+02, 0.000000e+00, 4.591412e+01, 0.000000e+00, -1.264899e+02, -0.000000e+00
1077, 1, 3.487775e+02, 0.000000e+00, 4.525536e+01, 0.000000e+00, -1.256346e+02, -0.000000e+00
1077, 2, 3.487775e+02, 0.000000e+00, 4.525536e+01, 0.000000e+00, -1.256346e+02, -0.000000e+00
1077, 3, 3.487775e+02, 0.000000e+00, 4.525536e+01, 0.000000e+00, -1.256346e+02, -0.000000e+00
1077, 4, 3.487775e+02, 0.000000e+00, 4.525536e+01, 0.000000e+00, -1.256346e+02, -0.000000e+00
1077, 5, 3.487775e+02, 0.000000e+00, 4.525536e+01, 0.000000e+00, -1.256346e+02, -0.000000e+00
1077, 6, 3.487775e+02, 0.000000e+00, 4.525536e+01, 0.000000e+00, -1.256346e+02, -0.000000e+00
1077, 7, 3.487775e+02, 0.000000e+00, 4.525536e+01, 0.000000e+00, -1.256346e+02, -0.000000e+00
1077, 8, 3.487775e+02, 0.000000e+00, 4.525536e+01, 0.000000e+00, -1.256346e+02, -0.000000e+00
1078, 1, 3.497370e+02, 0.000000e+00, 4.321292e+01, 0.000000e+00, -1.229356e+02, -0.000000e+00
1078, 2, 3.497370e+02, 0.000000e+00, 4.321292e+01, 0.000000e+00, -1.229356e+02, -0.000000e+00
1078, 3, 3.497370e+02, 0.000000e+00, 4.321292e+01, 0.000000e+00, -1.229356e+02, -0.000000e+00
1078, 4, 3.497370e+02, 0.000000e+00, 4.321292e+01, 0.000000e+00, -1.229356e+02, -0.000000e+00
1078, 5, 3.497370e+02, 0.000000e+00, 4.321292e+01, 0.000000e+00, -1.229356e+02, -0.000000e+00
1078, 6, 3.497370e+02, 0.000000e+00, 4.321292e+01, 0.000000e+00, -1.229356e+02, -0.000000e+00
1078, 7, 3.497370e+02, 0.000000e+00, 4.321292e+01, 0.000000e+00, -1.229356e+02, -0.000000e+00
1078, 8, 3.497370e+02, 0.000000e+00, 4.321292e+01, 0.000000e+00, -1.229356e+02, -0.000000e+00
1079, 1, 3.500431e+02, 0.000000e+00, 4.257361e+01, 0.000000e+00, -1.220762e+02, -0.000000e+00
1079, 2, 3.500431e+02, 0.000000e+00, 4.257361e+01, 0.000000e+00, -1.220762e+02, -0.000000e+00
1079, 3, 3.500431e+02, 0.000000e+00, 4.257361e+01, 0.000000e+00, -1.220762e+02, -0.000000e+00
1079, 4, 3.500431e+02, 0.000000e+00, 4.257361e+01, 0.000000e+00, -1.220762e+02, -0.000000e+00
1079, 5, 3.500431e+02, 0.000000e+00, 4.257361e+01, 0.000000e+00, -1.220762e+02, -0.000000e+00
1079, 6, 3.500431e+02, 0.000000e+00, 4.257361e+01, 0.000000e+00, -1.220762e+02, -0.000000e+00
1079, 7, 3.500431e+02, 0.000000e+00, 4.257361e+01, 0.000000e+00, -1.220762e+02, -0.000000e+00
1079, 8, 3.500431e+02, 0.000000e+00, 4.257361e+01, 0.000000e+00, -1.220762e+02, -0.000000e+00
1080, 1, 3.503296e+02, 0.000000e+00, 4.196579e+01, 0.000000e+00, -1.212512e+02, -0.000000e+00
1080, 2, 3.503296e+02, 0.000000e+00, 4.196579e+01, 0.000000e+00, -1.212512e+02, -0.000000e+00
1080, 3, 3.503296e+02, 0.000000e+00, 4.196579e+01, 0.000000e+00, -1.212512e+02, -0.000000e+00
1080, 4, 3.503296e+02, 0.000000e+00, 4.196579e+01, 0.000000e+00, -1.212512e+02, -0.000000e+00
1080, 5, 3.503296e+02, 0.000000e+00, 4.196579e+01, 0.000000e+00, -1.212512e+02, -0.000000e+00
1080, 6, 3.503296e+02, 0.000000e+00, 4.196579e+01, 0.000000e+00, -1.212512e+02, -0.000000e+00
1080, 7, 3.503296e+02, 0.000000e+00, 4.196579e+01, 0.000000e+00, -1.212512e+02, -0.000000e+00
1080, 8, 3.503296e+02, 0.000000e+00, 4.196579e+01, 0.000000e+00, -1.212512e+02, -0.000000e+00
1081, 1, 3.506122e+02, 0.000000e+00, 4.136185e+01, 0.000000e+00, -1.204241e+02, -0.000000e+00
1081, 2, 3.506122e+02, 0.000000e+00, 4.136185e+01, 0.000000e+00, -1.204241e+02, -0.000000e+00
1081, 3, 3.506122e+02, 0.000000e+00, 4.136185e+01, 0.000000e+00, -1.204241e+02, -0.000000e+00
1081, 4, 3.506122e+02, 0.000000e+00, 4.136185e+01, 0.000000e+00, -1.204241e+02, -0.000000e+00
1081, 5, 3.506122e+02, 0.000000e+00, 4.136185e+01, 0.000000e+00, -1.204241e+02, -0.000000e+00
1081, 6, 3.506122e+02, 0.000000e+00, 4.136185e+01, 0.000000e+00, -1.204241e+02, -0.000000e+00
1081, 7, 3.506122e+02, 0.000000e+00, 4.136185e+01, 0.000000e+00, -1.204241e+02, -0.000000e+00
1081, 8, 3.506122e+02, 0.000000e+00, 4.136185e+01, 0.000000e+00, -1.204241e+02, -0.000000e+00
1082, 1, 3.509061e+02, 0.000000e+00, 4.073469e+01, 0.000000e+00, -1.195577e+02, -0.000000e+00
1082, 2, 3.509061e+02, 0.000000e+00, 4.073469e+01, 0.000000e+00, -1.195577e+02, -0.000000e+00
1082, 3, 3.509061e+02, 0.000000e+00, 4.073469e+01, 0.000000e+00, -1.195577e+02, -0.000000e+00
1082, 4, 3.509061e+02, 0.000000e+00, 4.073469e+01, 0.000000e+00, -1.195577e+02, -0.000000e+00
1082, 5, 3.509061e+02, 0.000000e+00, 4.073469e+01, 0.000000e+00, -1.195577e+02, -0.000000e+00
1082, 6, 3.509061e+02, 0.000000e+00, 4.073469e+01, 0.000000e+00, -1.195577e+02, -0.000000e+00
1082, 7, 3.509061e+02, 0.000000e+00, 4.073469e+01, 0.000000e+00, -1.195577e+02, -0.000000e+00
1082, 8, 3.509061e+02, 0.000000e+00, 4.073469e+01, 0.000000e+00, -1.195577e+02, -0.000000e+00
1083, 1, 3.519401e+02, 0.000000e+00, 3.854040e+01, 0.000000e+00, -1.164642e+02, -0.000000e+00
1083, 2, 3.519401e+02, 0.000000e+00, 3.854040e+01, 0.000000e+00, -1.164642e+02, -0.000000e+00
1083, 3, 3.519401e+02, 0.000000e+00, 3.854040e+01, 0.000000e+00, -1.164642e+02, -0.000000e+00
1083, 4, 3.519401e+02, 0.000000e+00, 3.854040e+01, 0.000000e+00, -1.164642e+02, -0.000000e+00
1083, 5, 3.519401e+02, 0.000000e+00, 3.854040e+01, 0.000000e+00, -1.164642e+02, -0.000000e+00
1083, 6, 3.519401e+02, 0.000000e+00, 3.854040e+01, 0.000000e+00, -1.164642e+02, -0.000000e+00
1083, 7, 3.519401e+02, 0.000000e+00, 3.854040e+01, 0.000000e+00, -1.164642e+02, -0.000000e+00
1083, 8, 3.519401e+02, 0.000000e+00, 3.854040e+01, 0.000000e+00, -1.164642e+02, -0.000000e+00
1084, 1, 3.522303e+02, 0.000000e+00, 3.793486e+01, 0.000000e+00, -1.155933e+02, -0.000000e+00
1084, 2, 3.522303e+02, 0.000000e+00, 3.793486e+01, 0.000000e+00, -1.155933e+02, -0.000000e+00
1084, 3, 3.522303e+02, 0.000000e+00, 3.793486e+01, 0.000000e+00, -1.155933e+02, -0.000000e+00
1084, 4, 3.522303e+02, 0.000000e+00, 3.793486e+01, 0.000000e+00, -1.155933e+02, -0.000000e+00
1084, 5, 3.522303e+02, 0.000000e+00, 3.793486e+01, 0.000000e+00, -1.155933e+02, -0.000000e+00
1084, 6, 3.522303e+02, 0.000000e+00, 3.793486e+01, 0.000000e+00, -1.155933e+02, -0.000000e+00
1084, 7, 3.522303e+02, 0.000000e+00, 3.793486e+01, 0.000000e+00, -1.155933e+02, -0.000000e+00
1084, 8, 3.522303e+02, 0.000000e+00, 3.793486e+01, 0.000000e+00, -1.155933e+02, -0.000000e+00
1085, 1, 3.525076e+02, 0.000000e+00, 3.736009e+01, 0.000000e+00, -1.147594e+02, -0.000000e+00
1085, 2, 3.525076e+02, 0.000000e+00, 3.736009e+01, 0.000000e+00, -1.147594e+02, -0.000000e+00
1085, 3, 3.525076e+02, 0.000000e+00, 3.736009e+01, 0.000000e+00, -1.147594e+02, -0.000000e+00
1085, 4, 3.525076e+02, 0.000000e+00, 3.736009e+01, 0.000000e+00, -1.147594e+02, -0.000000e+00
1085, 5, 3.525076e+02, 0.000000e+00, 3.736009e+01, 0.000000e+00, -1.147594e+02, -0.000000e+00
1085, 6, 3.525076e+02, 0.000000e+00, 3.736009e+01, 0.000000e+00, -1.147594e+02, -0.000000e+00
1085, 7, 3.525076e+02, 0.000000e+00, 3.736009e+01, 0.000000e+00, -1.147594e+02, -0.000000e+00
1085, 8, 3.525076e+02, 0.000000e+00, 3.736009e+01, 0.000000e+00, -1.147594e+02, -0.000000e+00
1086, 1, 3.527809e+02, 0.000000e+00, 3.678927e+01, 0.000000e+00, -1.139234e+02, -0.000000e+00
1086, 2, 3.527809e+02, 0.000000e+00, 3.678927e+01, 0.000000e+00, -1.139234e+02, -0.000000e+00
1086, 3, 3.527809e+02, 0.000000e+00, 3.678927e+01, 0.000000e+00, -1.139234e+02, -0.000000e+00
1086, 4, 3.527809e+02, 0.000000e+00, 3.678927e+01, 0.000000e+00, -1.139234e+02, -0.000000e+00
1086, 5, 3.527809e+02, 0.000000e+00, 3.678927e+01, 0.000000e+00, -1.139234e+02, -0.000000e+00
1086, 6, 3.527809e+02, 0.000000e+00, 3.678927e+01, 0.000000e+00, -1.139234e+02, -0.000000e+00
1086, 7, 3.527809e+02, 0.000000e+00, 3.678927e+01, 0.000000e+00, -1.139234e+02, -0.000000e+00
1086, 8, 3.527809e+02, 0.000000e+00, 3.678927e+01, 0.000000e+00, -1.139234e+02, -0.000000e+00
1087, 1, 3.530584e+02, 0.000000e+00, 3.619635e+01, 0.000000e+00, -1.130461e+02, -0.000000e+00
1087, 2, 3.530584e+02, 0.000000e+00, 3.619635e+01, 0.000000e+00, -1.130461e+02, -0.000000e+00
1087, 3, 3.530584e+02, 0.000000e+00, 3.619635e+01, 0.000000e+00, -1.130461e+02, -0.000000e+00
1087, 4, 3.530584e+02, 0.000000e+00, 3.619635e+01, 0.000000e+00, -1.130461e+02, -0.000000e+00
1087, 5, 3.530584e+02, 0.000000e+00, 3.619635e+01, 0.000000e+00, -1.130461e+02, -0.000000e+00
1087, 6, 3.530584e+02, 0.000000e+00, 3.619635e+01, 0.000000e+00, -1.130461e+02, -0.000000e+00
1087, 7, 3.530584e+02, 0.000000e+00, 3.619635e+01, 0.000000e+00, -1.130461e+02, -0.000000e+00
1087, 8, 3.530584e+02, 0.000000e+00, 3.619635e+01, 0.000000e+00, -1.130461e+02, -0.000000e+00
1088, 1, 3.539372e+02, 0.000000e+00, 3.434773e+01, 0.000000e+00, -1.102585e+02, -0.000000e+00
1088, 2, 3.539372e+02, 0.000000e+00, 3.434773e+01, 0.000000e+00, -1.102585e+02, -0.000000e+00
1088, 3, 3.539372e+02, 0.000000e+00, 3.434773e+01, 0.000000e+00, -1.102585e+02, -0.000000e+00
1088, 4, 3.539372e+02, 0.000000e+00, 3.434773e+01, 0.000000e+00, -1.102585e+02, -0.000000e+00
1088, 5, 3.539372e+02, 0.000000e+00, 3.434773e+01, 0.000000e+00, -1.102585e+02, -0.000000e+00
1088, 6, 3.539372e+02, 0.000000e+00, 3.434773e+01, 0.000000e+00, -1.102585e+02, -0.000000e+00
1088, 7, 3.539372e+02, 0.000000e+00, 3.434773e+01, 0.000000e+00, -1.102585e+02, -0.000000e+00
1088, 8, 3.539372e+02, 0.000000e+00, 3.434773e+01, 0.000000e+00, -1.102585e+02, -0.000000e+00
1089, 1, 3.542073e+02, 0.000000e+00, 3.377414e+01, 0.000000e+00, -1.093757e+02, -0.000000e+00
1089, 2, 3.542073e+02, 0.000000e+00, 3.377414e+01, 0.000000e+00, -1.093757e+02, -0.000000e+00
1089, 3, 3.542073e+02, 0.000000e+00, 3.377414e+01, 0.000000e+00, -1.093757e+02, -0.000000e+00
1089, 4, 3.542073e+02, 0.000000e+00, 3.377414e+01, 0.000000e+00, -1.093757e+02, -0.000000e+00
1089, 5, 3.542073e+02, 0.000000e+00, 3.377414e+01, 0.000000e+00, -1.093757e+02, -0.000000e+00
1089, 6, 3.542073e+02, 0.000000e+00, 3.377414e+01, 0.000000e+00, -1.093757e+02, -0.000000e+00
1089, 7, 3.542073e+02, 0.000000e+00, 3.377414e+01, 0.000000e+00, -1.093757e+02, -0.000000e+00
1089, 8, 3.542073e+02, 0.000000e+00, 3.377414e+01, 0.000000e+00, -1.093757e+02, -0.000000e+00
1090, 1, 3.544712e+02, 0.000000e+00, 3.323052e+01, 0.000000e+00, -1.085323e+02, -0.000000e+00
1090, 2, 3.544712e+02, 0.000000e+00, 3.323052e+01, 0.000000e+00, -1.085323e+02, -0.000000e+00
1090, 3, 3.544712e+02, 0.000000e+00, 3.323052e+01, 0.000000e+00, -1.085323e+02, -0.000000e+00
1090, 4, 3.544712e+02, 0.000000e+00, 3.323052e+01, 0.000000e+00, -1.085323e+02, -0.000000e+00
1090, 5, 3.544712e+02, 0.000000e+00, 3.323052e+01, 0.000000e+00, -1.085323e+02, -0.000000e+00
1090, 6, 3.544712e+02, 0.000000e+00, 3.323052e+01, 0.000000e+00, -1.085323e+02, -0.000000e+00
1090, 7, 3.544712e+02, 0.000000e+00, 3.323052e+01, 0.000000e+00, -1.085323e+02, -0.000000e+00
1090, 8, 3.544712e+02, 0.000000e+00, 3.323052e+01, 0.000000e+00, -1.085323e+02, -0.000000e+00
1091, 1, 3.547312e+02, 0.000000e+00, 3.269093e+01, 0.000000e+00, -1.076870e+02, -0.000000e+00
1091, 2, 3.547312e+02, 0.000000e+00, 3.269093e+01, 0.000000e+00, -1.076870e+02, -0.000000e+00
1091, 3, 3.547312e+02, 0.000000e+00, 3.269093e+01, 0.000000e+00, -1.076870e+02, -0.000000e+00
1091, 4, 3.547312e+02, 0.000000e+00, 3.269093e+01, 0.000000e+00, -1.076870e+02, -0.000000e+00
1091, 5, 3.547312e+02, 0.000000e+00, 3.269093e+01, 0.000000e+00, -1.076870e+02, -0.000000e+00
1091, 6, 3.547312e+02, 0.000000e+00, 3.269093e+01, 0.000000e+00, -1.076870e+02, -0.000000e+00
1091, 7, 3.547312e+02, 0.000000e+00, 3.269093e+01, 0.000000e+00, -1.076870e+02, -0.000000e+00
1091, 8, 3.547312e+02, 0.000000e+00, 3.269093e+01, 0.000000e+00, -1.076870e+02, -0.000000e+00
1092, 1, 3.549993e+02, 0.000000e+00, 3.213119e+01, 0.000000e+00, -1.068015e+02, -0.000000e+00
1092, 2, 3.549993e+02, 0.000000e+00, 3.213119e+01, 0.000000e+00, -1.068015e+02, -0.000000e+00
1092, 3, 3.549993e+02, 0.000000e+00, 3.213119e+01, 0.000000e+00, -1.068015e+02, -0.000000e+00
1092, 4, 3.549993e+02, 0.000000e+00, 3.213119e+01, 0.000000e+00, -1.068015e+02, -0.000000e+00
1092, 5, 3.549993e+02, 0.000000e+00, 3.213119e+01, 0.000000e+00, -1.068015e+02, -0.000000e+00
1092, 6, 3.549993e+02, 0.000000e+00, 3.213119e+01, 0.000000e+00, -1.068015e+02, -0.000000e+00
1092, 7, 3.549993e+02, 0.000000e+00, 3.213119e+01, 0.000000e+00, -1.068015e+02, -0.000000e+00
1092, 8, 3.549993e+02, 0.000000e+00, 3.213119e+01, 0.000000e+00, -1.068015e+02, -0.000000e+00
1093, 1, 3.558340e+02, 0.000000e+00, 3.038019e+01, 0.000000e+00, -1.039726e+02, -0.000000e+00
1093, 2, 3.558340e+02, 0.000000e+00, 3.038019e+01, 0.000000e+00, -1.039726e+02, -0.000000e+00
1093, 3, 3.558340e+02, 0.000000e+00, 3.038019e+01, 0.000000e+00, -1.039726e+02, -0.000000e+00
1093, 4, 3.558340e+02, 0.000000e+00, 3.038019e+01, 0.000000e+00, -1.039726e+02, -0.000000e+00
1093, 5, 3.558340e+02, 0.000000e+00, 3.038019e+01, 0.000000e+00, -1.039726e+02, -0.000000e+00
1093, 6, 3.558340e+02, 0.000000e+00, 3.038019e+01, 0.000000e+00, -1.039726e+02, -0.000000e+00
1093, 7, 3.558340e+02, 0.000000e+00, 3.038019e+01, 0.000000e+00, -1.039726e+02, -0.000000e+00
1093, 8, 3.558340e+02, 0.000000e+00, 3.038019e+01, 0.000000e+00, -1.039726e+02, -0.000000e+00
1094, 1, 3.560945e+02, 0.000000e+00, 2.983998e+01, 0.000000e+00, -1.030818e+02, -0.000000e+00
1094, 2, 3.560945e+02, 0.000000e+00, 2.983998e+01, 0.000000e+00, -1.030818e+02, -0.000000e+00
1094, 3, 3.560945e+02, 0.000000e+00, 2.983998e+01, 0.000000e+00, -1.030818e+02, -0.000000e+00
1094, 4, 3.560945e+02, 0.000000e+00, 2.983998e+01, 0.000000e+00, -1.030818e+02, -0.000000e+00
1094, 5, 3.560945e+02, 0.000000e+00, 2.983998e+01, 0.000000e+00, -1.030818e+02, -0.000000e+00
1094, 6, 3.560945e+02, 0.000000e+00, 2.983998e+01, 0.000000e+00, -1.030818e+02, -0.000000e+00
1094, 7, 3.560945e+02, 0.000000e+00, 2.983998e+01, 0.000000e+00, -1.030818e+02, -0.000000e+00
1094, 8, 3.560945e+02, 0.000000e+00, 2.983998e+01, 0.000000e+00, -1.030818e+02, -0.000000e+00
1095, 1, 3.563393e+02, 0.000000e+00, 2.932742e+01, 0.000000e+00, -1.022278e+02, -0.000000e+00
1095, 2, 3.563393e+02, 0.000000e+00, 2.932742e+01, 0.000000e+00, -1.022278e+02, -0.000000e+00
1095, 3, 3.563393e+02, 0.000000e+00, 2.932742e+01, 0.000000e+00, -1.022278e+02, -0.000000e+00
1095, 4, 3.563393e+02, 0.000000e+00, 2.932742e+01, 0.000000e+00, -1.022278e+02, -0.000000e+00
1095, 5, 3.563393e+02, 0.000000e+00, 2.932742e+01, 0.000000e+00, -1.022278e+02, -0.000000e+00
1095, 6, 3.563393e+02, 0.000000e+00, 2.932742e+01, 0.000000e+00, -1.022278e+02, -0.000000e+00
1095, 7, 3.563393e+02, 0.000000e+00, 2.932742e+01, 0.000000e+00, -1.022278e+02, -0.000000e+00
1095, 8, 3.563393e+02, 0.000000e+00, 2.932742e+01, 0.000000e+00, -1.022278e+02, -0.000000e+00
1096, 1, 3.565800e+02, 0.000000e+00, 2.881897e+01, 0.000000e+00, -1.013719e+02, -0.000000e+00
1096, 2, 3.565800e+02, 0.000000e+00, 2.881897e+01, 0.000000e+00, -1.013719e+02, -0.000000e+00
1096, 3, 3.565800e+02, 0.000000e+00, 2.881897e+01, 0.000000e+00, -1.013719e+02, -0.000000e+00
1096, 4, 3.565800e+02, 0.000000e+00, 2.881897e+01, 0.000000e+00, -1.013719e+02, -0.000000e+00
1096, 5, 3.565800e+02, 0.000000e+00, 2.881897e+01, 0.000000e+00, -1.013719e+02, -0.000000e+00
1096, 6, 3.565800e+02, 0.000000e+00, 2.881897e+01, 0.000000e+00, -1.013719e+02, -0.000000e+00
1096, 7, 3.565800e+02, 0.000000e+00, 2.881897e+01, 0.000000e+00, -1.013719e+02, -0.000000e+00
1096, 8, 3.565800e+02, 0.000000e+00, 2.881897e+01, 0.000000e+00, -1.013719e+02, -0.000000e+00
1097, 1, 3.568385e+02, 0.000000e+00, 2.829270e+01, 0.000000e+00, -1.004785e+02, -0.000000e+00
1097, 2, 3.568385e+02, 0.000000e+00, 2.829270e+01, 0.000000e+00, -1.004785e+02, -0.000000e+00
1097, 3, 3.568385e+02, 0.000000e+00, 2.829270e+01, 0.000000e+00, -1.004785e+02, -0.000000e+00
1097, 4, 3.568385e+02, 0.000000e+00, 2.829270e+01, 0.000000e+00, -1.004785e+02, -0.000000e+00
1097, 5, 3.568385e+02, 0.000000e+00, 2.829270e+01, 0.000000e+00, -1.004785e+02, -0.000000e+00
1097, 6, 3.568385e+02, 0.000000e+00, 2.829270e+01, 0.000000e+00, -1.004785e+02, -0.000000e+00
1097, 7, 3.568385e+02, 0.000000e+00, 2.829270e+01, 0.000000e+00, -1.004785e+02, -0.000000e+00
1097, 8, 3.568385e+02, 0.000000e+00, 2.829270e+01, 0.000000e+00, -1.004785e+02, -0.000000e+00
1098, 1, 3.577326e+02, 0.000000e+00, 2.643474e+01, 0.000000e+00, -9.724488e+01, -0.000000e+00
1098, 2, 3.577326e+02, 0.000000e+00, 2.643474e+01, 0.000000e+00, -9.724488e+01, -0.000000e+00
1098, 3, 3.577326e+02, 0.000000e+00, 2.643474e+01, 0.000000e+00, -9.724488e+01, -0.000000e+00
1098, 4, 3.577326e+02, 0.000000e+00, 2.643474e+01, 0.000000e+00, -9.724488e+01, -0.000000e+00
1098, 5, 3.577326e+02, 0.000000e+00, 2.643474e+01, 0.000000e+00, -9.724488e+01, -0.000000e+00
1098, 6, 3.577326e+02, 0.000000e+00, 2.643474e+01, 0.000000e+00, -9.724488e+01, -0.000000e+00
1098, 7, 3.577326e+02, 0.000000e+00, 2.643474e+01, 0.000000e+00, -9.724488e+01, -0.000000e+00
1098, 8, 3.577326e+02, 0.000000e+00, 2.643474e+01, 0.000000e+00, -9.724488e+01, -0.000000e+00
1099, 1, 3.579759e+02, 0.000000e+00, 2.592963e+01, 0.000000e+00, -9.634407e+01, -0.000000e+00
1099, 2, 3.579759e+02, 0.000000e+00, 2.592963e+01, 0.000000e+00, -9.634407e+01, -0.000000e+00
1099, 3, 3.579759e+02, 0.000000e+00, 2.592963e+01, 0.000000e+00, -9.634407e+01, -0.000000e+00
1099, 4, 3.579759e+02, 0.000000e+00, 2.592963e+01, 0.000000e+00, -9.634407e+01, -0.000000e+00
1099, 5, 3.579759e+02, 0.000000e+00, 2.592963e+01, 0.000000e+00, -9.634407e+01, -0.000000e+00
1099, 6, 3.579759e+02, 0.000000e+00, 2.592963e+01, 0.000000e+00, -9.634407e+01, -0.000000e+00
1099, 7, 3.579759e+02, 0.000000e+00, 2.592963e+01, 0.000000e+00, -9.634407e+01, -0.000000e+00
1099, 8, 3.579759e+02, 0.000000e+00, 2.592963e+01, 0.000000e+00, -9.634407e+01, -0.000000e+00
1100, 1, 3.582048e+02, 0.000000e+00, 2.545076e+01, 0.000000e+00, -9.548081e+01, -0.000000e+00
1100, 2, 3.582048e+02, 0.000000e+00, 2.545076e+01, 0.000000e+00, -9.548081e+01, -0.000000e+00
1100, 3, 3.582048e+02, 0.000000e+00, 2.545076e+01, 0.000000e+00, -9.548081e+01, -0.000000e+00
1100, 4, 3.582048e+02, 0.000000e+00, 2.545076e+01, 0.000000e+00, -9.548081e+01, -0.000000e+00
1100, 5, 3.582048e+02, 0.000000e+00, 2.545076e+01, 0.000000e+00, -9.548081e+01, -0.000000e+00
1100, 6, 3.582048e+02, 0.000000e+00, 2.545076e+01, 0.000000e+00, -9.548081e+01, -0.000000e+00
1100, 7, 3.582048e+02, 0.000000e+00, 2.545076e+01, 0.000000e+00, -9.548081e+01, -0.000000e+00
1100, 8, 3.582048e+02, 0.000000e+00, 2.545076e+01, 0.000000e+00, -9.548081e+01, -0.000000e+00
1101, 1, 3.584352e+02, 0.000000e+00, 2.497645e+01, 0.000000e+00, -9.461733e+01, -0.000000e+00
1101, 2, 3.584352e+02, 0.000000e+00, 2.497645e+01, 0.000000e+00, -9.461733e+01, -0.000000e+00
1101, 3, 3.584352e+02, 0.000000e+00, 2.497645e+01, 0.000000e+00, -9.461733e+01, -0.000000e+00
1101, 4, 3.584352e+02, 0.000000e+00, 2.497645e+01, 0.000000e+00, -9.461733e+01, -0.000000e+00
1101, 5, 3.584352e+02, 0.000000e+00, 2.497645e+01, 0.000000e+00, -9.461733e+01, -0.000000e+00
1101, 6, 3.584352e+02, 0.000000e+00, 2.497645e+01, 0.000000e+00, -9.461733e+01, -0.000000e+00
1101, 7, 3.584352e+02, 0.000000e+00, 2.497645e+01, 0.000000e+00, -9.461733e+01, -0.000000e+00
1101, 8, 3.584352e+02, 0.000000e+00, 2.497645e+01, 0.000000e+00, -9.461733e+01, -0.000000e+00
1102, 1, 3.586763e+02, 0.000000e+00, 2.448537e+01, 0.000000e+00, -9.371405e+01, -0.000000e+00
1102, 2, 3.586763e+02, 0.000000e+00, 2.448537e+01, 0.000000e+00, -9.371405e+01, -0.000000e+00
1102, 3, 3.586763e+02, 0.000000e+00, 2.448537e+01, 0.000000e+00, -9.371405e+01, -0.000000e+00
1102, 4, 3.586763e+02, 0.000000e+00, 2.448537e+01, 0.000000e+00, -9.371405e+01, -0.000000e+00
1102, 5, 3.586763e+02, 0.000000e+00, 2.448537e+01, 0.000000e+00, -9.371405e+01, -0.000000e+00
1102, 6, 3.586763e+02, 0.000000e+00, 2.448537e+01, 0.000000e+00, -9.371405e+01, -0.000000e+00
1102, 7, 3.586763e+02, 0.000000e+00, 2.448537e+01, 0.000000e+00, -9.371405e+01, -0.000000e+00
1102, 8, 3.586763e+02, 0.000000e+00, 2.448537e+01, 0.000000e+00, -9.371405e+01, -0.000000e+00
1103, 1, 3.594217e+02, 0.000000e+00, 2.294270e+01, 0.000000e+00, -9.080806e+01, -0.000000e+00
1103, 2, 3.594217e+02, 0.000000e+00, 2.294270e+01, 0.000000e+00, -9.080806e+01, -0.000000e+00
1103, 3, 3.594217e+02, 0.000000e+00, 2.294270e+01, 0.000000e+00, -9.080806e+01, -0.000000e+00
1103, 4, 3.594217e+02, 0.000000e+00, 2.294270e+01, 0.000000e+00, -9.080806e+01, -0.000000e+00
1103, 5, 3.594217e+02, 0.000000e+00, 2.294270e+01, 0.000000e+00, -9.080806e+01, -0.000000e+00
1103, 6, 3.594217e+02, 0.000000e+00, 2.294270e+01, 0.000000e+00, -9.080806e+01, -0.000000e+00
1103, 7, 3.594217e+02, 0.000000e+00, 2.294270e+01, 0.000000e+00, -9.080806e+01, -0.000000e+00
1103, 8, 3.594217e+02, 0.000000e+00, 2.294270e+01, 0.000000e+00, -9.080806e+01, -0.000000e+00
1104, 1, 3.596492e+02, 0.000000e+00, 2.247123e+01, 0.000000e+00, -8.989860e+01, -0.000000e+00
1104, 2, 3.596492e+02, 0.000000e+00, 2.247123e+01, 0.000000e+00, -8.989860e+01, -0.000000e+00
1104, 3, 3.596492e+02, 0.000000e+00, 2.247123e+01, 0.000000e+00, -8.989860e+01, -0.000000e+00
1104, 4, 3.596492e+02, 0.000000e+00, 2.247123e+01, 0.000000e+00, -8.989860e+01, -0.000000e+00
1104, 5, 3.596492e+02, 0.000000e+00, 2.247123e+01, 0.000000e+00, -8.989860e+01, -0.000000e+00
1104, 6, 3.596492e+02, 0.000000e+00, 2.247123e+01, 0.000000e+00, -8.989860e+01, -0.000000e+00
1104, 7, 3.596492e+02, 0.000000e+00, 2.247123e+01, 0.000000e+00, -8.989860e+01, -0.000000e+00
1104, 8, 3.596492e+02, 0.000000e+00, 2.247123e+01, 0.000000e+00, -8.989860e+01, -0.000000e+00
1105, 1, 3.598693e+02, 0.000000e+00, 2.202499e+01, 0.000000e+00, -8.902874e+01, -0.000000e+00
1105, 2, 3.598693e+02, 0.000000e+00, 2.202499e+01, 0.000000e+00, -8.902874e+01, -0.000000e+00
1105, 3, 3.598693e+02, 0.000000e+00, 2.202499e+01, 0.000000e+00, -8.902874e+01, -0.000000e+00
1105, 4, 3.598693e+02, 0.000000e+00, 2.202499e+01, 0.000000e+00, -8.902874e+01, -0.000000e+00
1105, 5, 3.598693e+02, 0.000000e+00, 2.202499e+01, 0.000000e+00, -8.902874e+01, -0.000000e+00
1105, 6, 3.598693e+02, 0.000000e+00, 2.202499e+01, 0.000000e+00, -8.902874e+01, -0.000000e+00
1105, 7, 3.598693e+02, 0.000000e+00, 2.202499e+01, 0.000000e+00, -8.902874e+01, -0.000000e+00
1105, 8, 3.598693e+02, 0.000000e+00, 2.202499e+01, 0.000000e+00, -8.902874e+01, -0.000000e+00
1106, 1, 3.600852e+02, 0.000000e+00, 2.158296e+01, 0.000000e+00, -8.815726e+01, -0.000000e+00
1106, 2, 3.600852e+02, 0.000000e+00, 2.158296e+01, 0.000000e+00, -8.815726e+01, -0.000000e+00
1106, 3, 3.600852e+02, 0.000000e+00, 2.158296e+01, 0.000000e+00, -8.815726e+01, -0.000000e+00
1106, 4, 3.600852e+02, 0.000000e+00, 2.158296e+01, 0.000000e+00, -8.815726e+01, -0.000000e+00
1106, 5, 3.600852e+02, 0.000000e+00, 2.158296e+01, 0.000000e+00, -8.815726e+01, -0.000000e+00
1106, 6, 3.600852e+02, 0.000000e+00, 2.158296e+01, 0.000000e+00, -8.815726e+01, -0.000000e+00
1106, 7, 3.600852e+02, 0.000000e+00, 2.158296e+01, 0.000000e+00, -8.815726e+01, -0.000000e+00
1106, 8, 3.600852e+02, 0.000000e+00, 2.158296e+01, 0.000000e+00, -8.815726e+01, -0.000000e+00
1107, 1, 3.603049e+02, 0.000000e+00, 2.112526e+01, 0.000000e+00, -8.724412e+01, -0.000000e+00
1107, 2, 3.603049e+02, 0.000000e+00, 2.112526e+01, 0.000000e+00, -8.724412e+01, -0.000000e+00
1107, 3, 3.603049e+02, 0.000000e+00, 2.112526e+01, 0.000000e+00, -8.724412e+01, -0.000000e+00
1107, 4, 3.603049e+02, 0.000000e+00, 2.112526e+01, 0.000000e+00, -8.724412e+01, -0.000000e+00
1107, 5, 3.603049e+02, 0.000000e+00, 2.112526e+01, 0.000000e+00, -8.724412e+01, -0.000000e+00
1107, 6, 3.603049e+02, 0.000000e+00, 2.112526e+01, 0.000000e+00, -8.724412e+01, -0.000000e+00
1107, 7, 3.603049e+02, 0.000000e+00, 2.112526e+01, 0.000000e+00, -8.724412e+01, -0.000000e+00
1107, 8, 3.603049e+02, 0.000000e+00, 2.112526e+01, 0.000000e+00, -8.724412e+01, -0.000000e+00
1108, 1, 3.609996e+02, 0.000000e+00, 1.968675e+01, 0.000000e+00, -8.430249e+01, -0.000000e+00
1108, 2, 3.609996e+02, 0.000000e+00, 1.968675e+01, 0.000000e+00, -8.430249e+01, -0.000000e+00
1108, 3, 3.609996e+02, 0.000000e+00, 1.968675e+01, 0.000000e+00, -8.430249e+01, -0.000000e+00
1108, 4, 3.609996e+02, 0.000000e+00, 1.968675e+01, 0.000000e+00, -8.430249e+01, -0.000000e+00
1108, 5, 3.609996e+02, 0.000000e+00, 1.968675e+01, 0.000000e+00, -8.430249e+01, -0.000000e+00
1108, 6, 3.609996e+02, 0.000000e+00, 1.968675e+01, 0.000000e+00, -8.430249e+01, -0.000000e+00
1108, 7, 3.609996e+02, 0.000000e+00, 1.968675e+01, 0.000000e+00, -8.430249e+01, -0.000000e+00
1108, 8, 3.609996e+02, 0.000000e+00, 1.968675e+01, 0.000000e+00, -8.430249e+01, -0.000000e+00
1109, 1, 3.612110e+02, 0.000000e+00, 1.924926e+01, 0.000000e+00, -8.338493e+01, -0.000000e+00
1109, 2, 3.612110e+02, 0.000000e+00, 1.924926e+01, 0.000000e+00, -8.338493e+01, -0.000000e+00
1109, 3, 3.612110e+02, 0.000000e+00, 1.924926e+01, 0.000000e+00, -8.338493e+01, -0.000000e+00
1109, 4, 3.612110e+02, 0.000000e+00, 1.924926e+01, 0.000000e+00, -8.338493e+01, -0.000000e+00
1109, 5, 3.612110e+02, 0.000000e+00, 1.924926e+01, 0.000000e+00, -8.338493e+01, -0.000000e+00
1109, 6, 3.612110e+02, 0.000000e+00, 1.924926e+01, 0.000000e+00, -8.338493e+01, -0.000000e+00
1109, 7, 3.612110e+02, 0.000000e+00, 1.924926e+01, 0.000000e+00, -8.338493e+01, -0.000000e+00
1109, 8, 3.612110e+02, 0.000000e+00, 1.924926e+01, 0.000000e+00, -8.338493e+01, -0.000000e+00
1110, 1, 3.614164e+02, 0.000000e+00, 1.883557e+01, 0.000000e+00, -8.250748e+01, -0.000000e+00
1110, 2, 3.614164e+02, 0.000000e+00, 1.883557e+01, 0.000000e+00, -8.250748e+01, -0.000000e+00
1110, 3, 3.614164e+02, 0.000000e+00, 1.883557e+01, 0.000000e+00, -8.250748e+01, -0.000000e+00
1110, 4, 3.614164e+02, 0.000000e+00, 1.883557e+01, 0.000000e+00, -8.250748e+01, -0.000000e+00
1110, 5, 3.614164e+02, 0.000000e+00, 1.883557e+01, 0.000000e+00, -8.250748e+01, -0.000000e+00
1110, 6, 3.614164e+02, 0.000000e+00, 1.883557e+01, 0.000000e+00, -8.250748e+01, -0.000000e+00
1110, 7, 3.614164e+02, 0.000000e+00, 1.883557e+01, 0.000000e+00, -8.250748e+01, -0.000000e+00
1110, 8, 3.614164e+02, 0.000000e+00, 1.883557e+01, 0.000000e+00, -8.250748e+01, -0.000000e+00
1111, 1, 3.616176e+02, 0.000000e+00, 1.842614e+01, 0.000000e+00, -8.162853e+01, -0.000000e+00
1111, 2, 3.616176e+02, 0.000000e+00, 1.842614e+01, 0.000000e+00, -8.162853e+01, -0.000000e+00
1111, 3, 3.616176e+02, 0.000000e+00, 1.842614e+01, 0.000000e+00, -8.162853e+01, -0.000000e+00
1111, 4, 3.616176e+02, 0.000000e+00, 1.842614e+01, 0.000000e+00, -8.162853e+01, -0.000000e+00
1111, 5, 3.616176e+02, 0.000000e+00, 1.842614e+01, 0.000000e+00, -8.162853e+01, -0.000000e+00
1111, 6, 3.616176e+02, 0.000000e+00, 1.842614e+01, 0.000000e+00, -8.162853e+01, -0.000000e+00
1111, 7, 3.616176e+02, 0.000000e+00, 1.842614e+01, 0.000000e+00, -8.162853e+01, -0.000000e+00
1111, 8, 3.616176e+02, 0.000000e+00, 1.842614e+01, 0.000000e+00, -8.162853e+01, -0.000000e+00
1112, 1, 3.618210e+02, 0.000000e+00, 1.800257e+01, 0.000000e+00, -8.070754e+01, -0.000000e+00
1112, 2, 3.618210e+02, 0.000000e+00, 1.800257e+01, 0.000000e+00, -8.070754e+01, -0.000000e+00
1112, 3, 3.618210e+02, 0.000000e+00, 1.800257e+01, 0.000000e+00, -8.070754e+01, -0.000000e+00
1112, 4, 3.618210e+02, 0.000000e+00, 1.800257e+01, 0.000000e+00, -8.070754e+01, -0.000000e+00
1112, 5, 3.618210e+02, 0.000000e+00, 1.800257e+01, 0.000000e+00, -8.070754e+01, -0.000000e+00
1112, 6, 3.618210e+02, 0.000000e+00, 1.800257e+01, 0.000000e+00, -8.070754e+01, -0.000000e+00
1112, 7, 3.618210e+02, 0.000000e+00, 1.800257e+01, 0.000000e+00, -8.070754e+01, -0.000000e+00
1112, 8, 3.618210e+02, 0.000000e+00, 1.800257e+01, 0.000000e+00, -8.070754e+01, -0.000000e+00
1113, 1, 3.625526e+02, 0.000000e+00, 1.650344e+01, 0.000000e+00, -7.735222e+01, -0.000000e+00
1113, 2, 3.625526e+02, 0.000000e+00, 1.650344e+01, 0.000000e+00, -7.735222e+01, -0.000000e+00
1113, 3, 3.625526e+02, 0.000000e+00, 1.650344e+01, 0.000000e+00, -7.735222e+01, -0.000000e+00
1113, 4, 3.625526e+02, 0.000000e+00, 1.650344e+01, 0.000000e+00, -7.735222e+01, -0.000000e+00
1113, 5, 3.625526e+02, 0.000000e+00, 1.650344e+01, 0.000000e+00, -7.735222e+01, -0.000000e+00
1113, 6, 3.625526e+02, 0.000000e+00, 1.650344e+01, 0.000000e+00, -7.735222e+01, -0.000000e+00
1113, 7, 3.625526e+02, 0.000000e+00, 1.650344e+01, 0.000000e+00, -7.735222e+01, -0.000000e+00
1113, 8, 3.625526e+02, 0.000000e+00, 1.650344e+01, 0.000000e+00, -7.735222e+01, -0.000000e+00
1114, 1, 3.627512e+02, 0.000000e+00, 1.610247e+01, 0.000000e+00, -7.642769e+01, -0.000000e+00
1114, 2, 3.627512e+02, 0.000000e+00, 1.610247e+01, 0.000000e+00, -7.642769e+01, -0.000000e+00
1114, 3, 3.627512e+02, 0.000000e+00, 1.610247e+01, 0.000000e+00, -7.642769e+01, -0.000000e+00
1114, 4, 3.627512e+02, 0.000000e+00, 1.610247e+01, 0.000000e+00, -7.642769e+01, -0.000000e+00
1114, 5, 3.627512e+02, 0.000000e+00, 1.610247e+01, 0.000000e+00, -7.642769e+01, -0.000000e+00
1114, 6, 3.627512e+02, 0.000000e+00, 1.610247e+01, 0.000000e+00, -7.642769e+01, -0.000000e+00
1114, 7, 3.627512e+02, 0.000000e+00, 1.610247e+01, 0.000000e+00, -7.642769e+01, -0.000000e+00
1114, 8, 3.627512e+02, 0.000000e+00, 1.610247e+01, 0.000000e+00, -7.642769e+01, -0.000000e+00
1115, 1, 3.629398e+02, 0.000000e+00, 1.572348e+01, 0.000000e+00, -7.554255e+01, -0.000000e+00
1115, 2, 3.629398e+02, 0.000000e+00, 1.572348e+01, 0.000000e+00, -7.554255e+01, -0.000000e+00
1115, 3, 3.629398e+02, 0.000000e+00, 1.572348e+01, 0.000000e+00, -7.554255e+01, -0.000000e+00
1115, 4, 3.629398e+02, 0.000000e+00, 1.572348e+01, 0.000000e+00, -7.554255e+01, -0.000000e+00
1115, 5, 3.629398e+02, 0.000000e+00, 1.572348e+01, 0.000000e+00, -7.554255e+01, -0.000000e+00
1115, 6, 3.629398e+02, 0.000000e+00, 1.572348e+01, 0.000000e+00, -7.554255e+01, -0.000000e+00
1115, 7, 3.629398e+02, 0.000000e+00, 1.572348e+01, 0.000000e+00, -7.554255e+01, -0.000000e+00
1115, 8, 3.629398e+02, 0.000000e+00, 1.572348e+01, 0.000000e+00, -7.554255e+01, -0.000000e+00
1116, 1, 3.631241e+02, 0.000000e+00, 1.534881e+01, 0.000000e+00, -7.465603e+01, -0.000000e+00
1116, 2, 3.631241e+02, 0.000000e+00, 1.534881e+01, 0.000000e+00, -7.465603e+01, -0.000000e+00
1116, 3, 3.631241e+02, 0.000000e+00, 1.534881e+01, 0.000000e+00, -7.465603e+01, -0.000000e+00
1116, 4, 3.631241e+02, 0.000000e+00, 1.534881e+01, 0.000000e+00, -7.465603e+01, -0.000000e+00
1116, 5, 3.631241e+02, 0.000000e+00, 1.534881e+01, 0.000000e+00, -7.465603e+01, -0.000000e+00
1116, 6, 3.631241e+02, 0.000000e+00, 1.534881e+01, 0.000000e+00, -7.465603e+01, -0.000000e+00
1116, 7, 3.631241e+02, 0.000000e+00, 1.534881e+01, 0.000000e+00, -7.465603e+01, -0.000000e+00
1116, 8, 3.631241e+02, 0.000000e+00, 1.534881e+01, 0.000000e+00, -7.465603e+01, -0.000000e+00
1117, 1, 3.633090e+02, 0.000000e+00, 1.496162e+01, 0.000000e+00, -7.372714e+01, -0.000000e+00
1117, 2, 3.633090e+02, 0.000000e+00, 1.496162e+01, 0.000000e+00, -7.372714e+01, -0.000000e+00
1117, 3, 3.633090e+02, 0.000000e+00, 1.496162e+01, 0.000000e+00, -7.372714e+01, -0.000000e+00
1117, 4, 3.633090e+02, 0.000000e+00, 1.496162e+01, 0.000000e+00, -7.372714e+01, -0.000000e+00
1117, 5, 3.633090e+02, 0.000000e+00, 1.496162e+01, 0.000000e+00, -7.372714e+01, -0.000000e+00
1117, 6, 3.633090e+02, 0.000000e+00, 1.496162e+01, 0.000000e+00, -7.372714e+01, -0.000000e+00
1117, 7, 3.633090e+02, 0.000000e+00, 1.496162e+01, 0.000000e+00, -7.372714e+01, -0.000000e+00
1117, 8, 3.633090e+02, 0.000000e+00, 1.496162e+01, 0.000000e+00, -7.372714e+01, -0.000000e+00
1118, 1, 3.639076e+02, 0.000000e+00, 1.374414e+01, 0.000000e+00, -7.072197e+01, -0.000000e+00
1118, 2, 3.639076e+02, 0.000000e+00, 1.374414e+01, 0.000000e+00, -7.072197e+01, -0.000000e+00
1118, 3, 3.639076e+02, 0.000000e+00, 1.374414e+01, 0.000000e+00, -7.072197e+01, -0.000000e+00
1118, 4, 3.639076e+02, 0.000000e+00, 1.374414e+01, 0.000000e+00, -7.072197e+01, -0.000000e+00
1118, 5, 3.639076e+02, 0.000000e+00, 1.374414e+01, 0.000000e+00, -7.072197e+01, -0.000000e+00
1118, 6, 3.639076e+02, 0.000000e+00, 1.374414e+01, 0.000000e+00, -7.072197e+01, -0.000000e+00
1118, 7, 3.639076e+02, 0.000000e+00, 1.374414e+01, 0.000000e+00, -7.072197e+01, -0.000000e+00
1118, 8, 3.639076e+02, 0.000000e+00, 1.374414e+01, 0.000000e+00, -7.072197e+01, -0.000000e+00
1119, 1, 3.640895e+02, 0.000000e+00, 1.337776e+01, 0.000000e+00, -6.979041e+01, -0.000000e+00
1119, 2, 3.640895e+02, 0.000000e+00, 1.337776e+01, 0.000000e+00, -6.979041e+01, -0.000000e+00
1119, 3, 3.640895e+02, 0.000000e+00, 1.337776e+01, 0.000000e+00, -6.979041e+01, -0.000000e+00
1119, 4, 3.640895e+02, 0.000000e+00, 1.337776e+01, 0.000000e+00, -6.979041e+01, -0.000000e+00
1119, 5, 3.640895e+02, 0.000000e+00, 1.337776e+01, 0.000000e+00, -6.979041e+01, -0.000000e+00
1119, 6, 3.640895e+02, 0.000000e+00, 1.337776e+01, 0.000000e+00, -6.979041e+01, -0.000000e+00
1119, 7, 3.640895e+02, 0.000000e+00, 1.337776e+01, 0.000000e+00, -6.979041e+01, -0.000000e+00
1119, 8, 3.640895e+02, 0.000000e+00, 1.337776e+01, 0.000000e+00, -6.979041e+01, -0.000000e+00
1120, 1, 3.642571e+02, 0.000000e+00, 1.303170e+01, 0.000000e+00, -6.889767e+01, -0.000000e+00
1120, 2, 3.642571e+02, 0.000000e+00, 1.303170e+01, 0.000000e+00, -6.889767e+01, -0.000000e+00
1120, 3, 3.642571e+02, 0.000000e+00, 1.303170e+01, 0.000000e+00, -6.889767e+01, -0.000000e+00
1120, 4, 3.642571e+02, 0.000000e+00, 1.303170e+01, 0.000000e+00, -6.889767e+01, -0.000000e+00
1120, 5, 3.642571e+02, 0.000000e+00, 1.303170e+01, 0.000000e+00, -6.889767e+01, -0.000000e+00
1120, 6, 3.642571e+02, 0.000000e+00, 1.303170e+01, 0.000000e+00, -6.889767e+01, -0.000000e+00
1120, 7, 3.642571e+02, 0.000000e+00, 1.303170e+01, 0.000000e+00, -6.889767e+01, -0.000000e+00
1120, 8, 3.642571e+02, 0.000000e+00, 1.303170e+01, 0.000000e+00, -6.889767e+01, -0.000000e+00
1121, 1, 3.644260e+02, 0.000000e+00, 1.269023e+01, 0.000000e+00, -6.800477e+01, -0.000000e+00
1121, 2, 3.644260e+02, 0.000000e+00, 1.269023e+01, 0.000000e+00, -6.800477e+01, -0.000000e+00
1121, 3, 3.644260e+02, 0.000000e+00, 1.269023e+01, 0.000000e+00, -6.800477e+01, -0.000000e+00
1121, 4, 3.644260e+02, 0.000000e+00, 1.269023e+01, 0.000000e+00, -6.800477e+01, -0.000000e+00
1121, 5, 3.644260e+02, 0.000000e+00, 1.269023e+01, 0.000000e+00, -6.800477e+01, -0.000000e+00
1121, 6, 3.644260e+02, 0.000000e+00, 1.269023e+01, 0.000000e+00, -6.800477e+01, -0.000000e+00
1121, 7, 3.644260e+02, 0.000000e+00, 1.269023e+01, 0.000000e+00, -6.800477e+01, -0.000000e+00
1121, 8, 3.644260e+02, 0.000000e+00, 1.269023e+01, 0.000000e+00, -6.800477e+01, -0.000000e+00
1122, 1, 3.645997e+02, 0.000000e+00, 1.233798e+01, 0.000000e+00, -6.707029e+01, -0.000000e+00
1122, 2, 3.645997e+02, 0.000000e+00, 1.233798e+01, 0.000000e+00, -6.707029e+01, -0.000000e+00
1122, 3, 3.645997e+02, 0.000000e+00, 1.233798e+01, 0.000000e+00, -6.707029e+01, -0.000000e+00
1122, 4, 3.645997e+02, 0.000000e+00, 1.233798e+01, 0.000000e+00, -6.707029e+01, -0.000000e+00
1122, 5, 3.645997e+02, 0.000000e+00, 1.233798e+01, 0.000000e+00, -6.707029e+01, -0.000000e+00
1122, 6, 3.645997e+02, 0.000000e+00, 1.233798e+01, 0.000000e+00, -6.707029e+01, -0.000000e+00
1122, 7, 3.645997e+02, 0.000000e+00, 1.233798e+01, 0.000000e+00, -6.707029e+01, -0.000000e+00
1122, 8, 3.645997e+02, 0.000000e+00, 1.233798e+01, 0.000000e+00, -6.707029e+01, -0.000000e+00
1123, 1, 3.651422e+02, 0.000000e+00, 1.123028e+01, 0.000000e+00, -6.403630e+01, -0.000000e+00
1123, 2, 3.651422e+02, 0.000000e+00, 1.123028e+01, 0.000000e+00, -6.403630e+01, -0.000000e+00
1123, 3, 3.651422e+02, 0.000000e+00, 1.123028e+01, 0.000000e+00, -6.403630e+01, -0.000000e+00
1123, 4, 3.651422e+02, 0.000000e+00, 1.123028e+01, 0.000000e+00, -6.403630e+01, -0.000000e+00
1123, 5, 3.651422e+02, 0.000000e+00, 1.123028e+01, 0.000000e+00, -6.403630e+01, -0.000000e+00
1123, 6, 3.651422e+02, 0.000000e+00, 1.123028e+01, 0.000000e+00, -6.403630e+01, -0.000000e+00
1123, 7, 3.651422e+02, 0.000000e+00, 1.123028e+01, 0.000000e+00, -6.403630e+01, -0.000000e+00
1123, 8, 3.651422e+02, 0.000000e+00, 1.123028e+01, 0.000000e+00, -6.403630e+01, -0.000000e+00
1124, 1, 3.653071e+02, 0.000000e+00, 1.089877e+01, 0.000000e+00, -6.309832e+01, -0.000000e+00
1124, 2, 3.653071e+02, 0.000000e+00, 1.089877e+01, 0.000000e+00, -6.309832e+01, -0.000000e+00
1124, 3, 3.653071e+02, 0.000000e+00, 1.089877e+01, 0.000000e+00, -6.309832e+01, -0.000000e+00
1124, 4, 3.653071e+02, 0.000000e+00, 1.089877e+01, 0.000000e+00, -6.309832e+01, -0.000000e+00
1124, 5, 3.653071e+02, 0.000000e+00, 1.089877e+01, 0.000000e+00, -6.309832e+01, -0.000000e+00
1124, 6, 3.653071e+02, 0.000000e+00, 1.089877e+01, 0.000000e+00, -6.309832e+01, -0.000000e+00
1124, 7, 3.653071e+02, 0.000000e+00, 1.089877e+01, 0.000000e+00, -6.309832e+01, -0.000000e+00
1124, 8, 3.653071e+02, 0.000000e+00, 1.089877e+01, 0.000000e+00, -6.309832e+01, -0.000000e+00
1125, 1, 3.654590e+02, 0.000000e+00, 1.058616e+01, 0.000000e+00, -6.219973e+01, -0.000000e+00
1125, 2, 3.654590e+02, 0.000000e+00, 1.058616e+01, 0.000000e+00, -6.219973e+01, -0.000000e+00
1125, 3, 3.654590e+02, 0.000000e+00, 1.058616e+01, 0.000000e+00, -6.219973e+01, -0.000000e+00
1125, 4, 3.654590e+02, 0.000000e+00, 1.058616e+01, 0.000000e+00, -6.219973e+01, -0.000000e+00
1125, 5, 3.654590e+02, 0.000000e+00, 1.058616e+01, 0.000000e+00, -6.219973e+01, -0.000000e+00
1125, 6, 3.654590e+02, 0.000000e+00, 1.058616e+01, 0.000000e+00, -6.219973e+01, -0.000000e+00
1125, 7, 3.654590e+02, 0.000000e+00, 1.058616e+01, 0.000000e+00, -6.219973e+01, -0.000000e+00
1125, 8, 3.654590e+02, 0.000000e+00, 1.058616e+01, 0.000000e+00, -6.219973e+01, -0.000000e+00
1126, 1, 3.656066e+02, 0.000000e+00, 1.027796e+01, 0.000000e+00, -6.130001e+01, -0.000000e+00
1126, 2, 3.656066e+02, 0.000000e+00, 1.027796e+01, 0.000000e+00, -6.130001e+01, -0.000000e+00
1126, 3, 3.656066e+02, 0.000000e+00, 1.027796e+01, 0.000000e+00, -6.130001e+01, -0.000000e+00
1126, 4, 3.656066e+02, 0.000000e+00, 1.027796e+01, 0.000000e+00, -6.130001e+01, -0.000000e+00
1126, 5, 3.656066e+02, 0.000000e+00, 1.027796e+01, 0.000000e+00, -6.130001e+01, -0.000000e+00
1126, 6, 3.656066e+02, 0.000000e+00, 1.027796e+01, 0.000000e+00, -6.130001e+01, -0.000000e+00
1126, 7, 3.656066e+02, 0.000000e+00, 1.027796e+01, 0.000000e+00, -6.130001e+01, -0.000000e+00
1126, 8, 3.656066e+02, 0.000000e+00, 1.027796e+01, 0.000000e+00, -6.130001e+01, -0.000000e+00
1127, 1, 3.657632e+02, 0.000000e+00, 9.960699e+00, 0.000000e+00, -6.035940e+01, -0.000000e+00
1127, 2, 3.657632e+02, 0.000000e+00, 9.960699e+00, 0.000000e+00, -6.035940e+01, -0.000000e+00
1127, 3, 3.657632e+02, 0.000000e+00, 9.960699e+00, 0.000000e+00, -6.035940e+01, -0.000000e+00
1127, 4, 3.657632e+02, 0.000000e+00, 9.960699e+00, 0.000000e+00, -6.035940e+01, -0.000000e+00
1127, 5, 3.657632e+02, 0.000000e+00, 9.960699e+00, 0.000000e+00, -6.035940e+01, -0.000000e+00
1127, 6, 3.657632e+02, 0.000000e+00, 9.960699e+00, 0.000000e+00, -6.035940e+01, -0.000000e+00
1127, 7, 3.657632e+02, 0.000000e+00, 9.960699e+00, 0.000000e+00, -6.035940e+01, -0.000000e+00
1127, 8, 3.657632e+02, 0.000000e+00, 9.960699e+00, 0.000000e+00, -6.035940e+01, -0.000000e+00
1128, 1, 3.662974e+02, 0.000000e+00, 8.879029e+00, 0.000000e+00, -5.702951e+01, -0.000000e+00
1128, 2, 3.662974e+02, 0.000000e+00, 8.879029e+00, 0.000000e+00, -5.702951e+01, -0.000000e+00
1128, 3, 3.662974e+02, 0.000000e+00, 8.879029e+00, 0.000000e+00, -5.702951e+01, -0.000000e+00
1128, 4, 3.662974e+02, 0.000000e+00, 8.879029e+00, 0.000000e+00, -5.702951e+01, -0.000000e+00
1128, 5, 3.662974e+02, 0.000000e+00, 8.879029e+00, 0.000000e+00, -5.702951e+01, -0.000000e+00
1128, 6, 3.662974e+02, 0.000000e+00, 8.879029e+00, 0.000000e+00, -5.702951e+01, -0.000000e+00
1128, 7, 3.662974e+02, 0.000000e+00, 8.879029e+00, 0.000000e+00, -5.702951e+01, -0.000000e+00
1128, 8, 3.662974e+02, 0.000000e+00, 8.879029e+00, 0.000000e+00, -5.702951e+01, -0.000000e+00
1129, 1, 3.664233e+02, 0.000000e+00, 8.622223e+00, 0.000000e+00, -5.620839e+01, -0.000000e+00
1129, 2, 3.664233e+02, 0.000000e+00, 8.622223e+00, 0.000000e+00, -5.620839e+01, -0.000000e+00
1129, 3, 3.664233e+02, 0.000000e+00, 8.622223e+00, 0.000000e+00, -5.620839e+01, -0.000000e+00
1129, 4, 3.664233e+02, 0.000000e+00, 8.622223e+00, 0.000000e+00, -5.620839e+01, -0.000000e+00
1129, 5, 3.664233e+02, 0.000000e+00, 8.622223e+00, 0.000000e+00, -5.620839e+01, -0.000000e+00
1129, 6, 3.664233e+02, 0.000000e+00, 8.622223e+00, 0.000000e+00, -5.620839e+01, -0.000000e+00
1129, 7, 3.664233e+02, 0.000000e+00, 8.622223e+00, 0.000000e+00, -5.620839e+01, -0.000000e+00
1129, 8, 3.664233e+02, 0.000000e+00, 8.622223e+00, 0.000000e+00, -5.620839e+01, -0.000000e+00
1130, 1, 3.665645e+02, 0.000000e+00, 8.344148e+00, 0.000000e+00, -5.530523e+01, -0.000000e+00
1130, 2, 3.665645e+02, 0.000000e+00, 8.344148e+00, 0.000000e+00, -5.530523e+01, -0.000000e+00
1130, 3, 3.665645e+02, 0.000000e+00, 8.344148e+00, 0.000000e+00, -5.530523e+01, -0.000000e+00
1130, 4, 3.665645e+02, 0.000000e+00, 8.344148e+00, 0.000000e+00, -5.530523e+01, -0.000000e+00
1130, 5, 3.665645e+02, 0.000000e+00, 8.344148e+00, 0.000000e+00, -5.530523e+01, -0.000000e+00
1130, 6, 3.665645e+02, 0.000000e+00, 8.344148e+00, 0.000000e+00, -5.530523e+01, -0.000000e+00
1130, 7, 3.665645e+02, 0.000000e+00, 8.344148e+00, 0.000000e+00, -5.530523e+01, -0.000000e+00
1130, 8, 3.665645e+02, 0.000000e+00, 8.344148e+00, 0.000000e+00, -5.530523e+01, -0.000000e+00
1131, 1, 3.667013e+02, 0.000000e+00, 8.070528e+00, 0.000000e+00, -5.440104e+01, -0.000000e+00
1131, 2, 3.667013e+02, 0.000000e+00, 8.070528e+00, 0.000000e+00, -5.440104e+01, -0.000000e+00
1131, 3, 3.667013e+02, 0.000000e+00, 8.070528e+00, 0.000000e+00, -5.440104e+01, -0.000000e+00
1131, 4, 3.667013e+02, 0.000000e+00, 8.070528e+00, 0.000000e+00, -5.440104e+01, -0.000000e+00
1131, 5, 3.667013e+02, 0.000000e+00, 8.070528e+00, 0.000000e+00, -5.440104e+01, -0.000000e+00
1131, 6, 3.667013e+02, 0.000000e+00, 8.070528e+00, 0.000000e+00, -5.440104e+01, -0.000000e+00
1131, 7, 3.667013e+02, 0.000000e+00, 8.070528e+00, 0.000000e+00, -5.440104e+01, -0.000000e+00
1131, 8, 3.667013e+02, 0.000000e+00, 8.070528e+00, 0.000000e+00, -5.440104e+01, -0.000000e+00
1132, 1, 3.668212e+02, 0.000000e+00, 7.825644e+00, 0.000000e+00, -5.357809e+01, -0.000000e+00
1132, 2, 3.668212e+02, 0.000000e+00, 7.825644e+00, 0.000000e+00, -5.357809e+01, -0.000000e+00
1132, 3, 3.668212e+02, 0.000000e+00, 7.825644e+00, 0.000000e+00, -5.357809e+01, -0.000000e+00
1132, 4, 3.668212e+02, 0.000000e+00, 7.825644e+00, 0.000000e+00, -5.357809e+01, -0.000000e+00
1132, 5, 3.668212e+02, 0.000000e+00, 7.825644e+00, 0.000000e+00, -5.357809e+01, -0.000000e+00
1132, 6, 3.668212e+02, 0.000000e+00, 7.825644e+00, 0.000000e+00, -5.357809e+01, -0.000000e+00
1132, 7, 3.668212e+02, 0.000000e+00, 7.825644e+00, 0.000000e+00, -5.357809e+01, -0.000000e+00
1132, 8, 3.668212e+02, 0.000000e+00, 7.825644e+00, 0.000000e+00, -5.357809e+01, -0.000000e+00
1133, 1, 3.672245e+02, 0.000000e+00, 7.011825e+00, 0.000000e+00, -5.074361e+01, -0.000000e+00
1133, 2, 3.672245e+02, 0.000000e+00, 7.011825e+00, 0.000000e+00, -5.074361e+01, -0.000000e+00
1133, 3, 3.672245e+02, 0.000000e+00, 7.011825e+00, 0.000000e+00, -5.074361e+01, -0.000000e+00
1133, 4, 3.672245e+02, 0.000000e+00, 7.011825e+00, 0.000000e+00, -5.074361e+01, -0.000000e+00
1133, 5, 3.672245e+02, 0.000000e+00, 7.011825e+00, 0.000000e+00, -5.074361e+01, -0.000000e+00
1133, 6, 3.672245e+02, 0.000000e+00, 7.011825e+00, 0.000000e+00, -5.074361e+01, -0.000000e+00
1133, 7, 3.672245e+02, 0.000000e+00, 7.011825e+00, 0.000000e+00, -5.074361e+01, -0.000000e+00
1133, 8, 3.672245e+02, 0.000000e+00, 7.011825e+00, 0.000000e+00, -5.074361e+01, -0.000000e+00
1134, 1, 3.673396e+02, 0.000000e+00, 6.783602e+00, 0.000000e+00, -4.991879e+01, -0.000000e+00
1134, 2, 3.673396e+02, 0.000000e+00, 6.783602e+00, 0.000000e+00, -4.991879e+01, -0.000000e+00
1134, 3, 3.673396e+02, 0.000000e+00, 6.783602e+00, 0.000000e+00, -4.991879e+01, -0.000000e+00
1134, 4, 3.673396e+02, 0.000000e+00, 6.783602e+00, 0.000000e+00, -4.991879e+01, -0.000000e+00
1134, 5, 3.673396e+02, 0.000000e+00, 6.783602e+00, 0.000000e+00, -4.991879e+01, -0.000000e+00
1134, 6, 3.673396e+02, 0.000000e+00, 6.783602e+00, 0.000000e+00, -4.991879e+01, -0.000000e+00
1134, 7, 3.673396e+02, 0.000000e+00, 6.783602e+00, 0.000000e+00, -4.991879e+01, -0.000000e+00
1134, 8, 3.673396e+02, 0.000000e+00, 6.783602e+00, 0.000000e+00, -4.991879e+01, -0.000000e+00
1135, 1, 3.674615e+02, 0.000000e+00, 6.536827e+00, 0.000000e+00, -4.901053e+01, -0.000000e+00
1135, 2, 3.674615e+02, 0.000000e+00, 6.536827e+00, 0.000000e+00, -4.901053e+01, -0.000000e+00
1135, 3, 3.674615e+02, 0.000000e+00, 6.536827e+00, 0.000000e+00, -4.901053e+01, -0.000000e+00
1135, 4, 3.674615e+02, 0.000000e+00, 6.536827e+00, 0.000000e+00, -4.901053e+01, -0.000000e+00
1135, 5, 3.674615e+02, 0.000000e+00, 6.536827e+00, 0.000000e+00, -4.901053e+01, -0.000000e+00
1135, 6, 3.674615e+02, 0.000000e+00, 6.536827e+00, 0.000000e+00, -4.901053e+01, -0.000000e+00
1135, 7, 3.674615e+02, 0.000000e+00, 6.536827e+00, 0.000000e+00, -4.901053e+01, -0.000000e+00
1135, 8, 3.674615e+02, 0.000000e+00, 6.536827e+00, 0.000000e+00, -4.901053e+01, -0.000000e+00
1136, 1, 3.675846e+02, 0.000000e+00, 6.294647e+00, 0.000000e+00, -4.810214e+01, -0.000000e+00
1136, 2, 3.675846e+02, 0.000000e+00, 6.294647e+00, 0.000000e+00, -4.810214e+01, -0.000000e+00
1136, 3, 3.675846e+02, 0.000000e+00, 6.294647e+00, 0.000000e+00, -4.810214e+01, -0.000000e+00
1136, 4, 3.675846e+02, 0.000000e+00, 6.294647e+00, 0.000000e+00, -4.810214e+01, -0.000000e+00
1136, 5, 3.675846e+02, 0.000000e+00, 6.294647e+00, 0.000000e+00, -4.810214e+01, -0.000000e+00
1136, 6, 3.675846e+02, 0.000000e+00, 6.294647e+00, 0.000000e+00, -4.810214e+01, -0.000000e+00
1136, 7, 3.675846e+02, 0.000000e+00, 6.294647e+00, 0.000000e+00, -4.810214e+01, -0.000000e+00
1136, 8, 3.675846e+02, 0.000000e+00, 6.294647e+00, 0.000000e+00, -4.810214e+01, -0.000000e+00
1137, 1, 3.676879e+02, 0.000000e+00, 6.078302e+00, 0.000000e+00, -4.727492e+01, -0.000000e+00
1137, 2, 3.676879e+02, 0.000000e+00, 6.078302e+00, 0.000000e+00, -4.727492e+01, -0.000000e+00
1137, 3, 3.676879e+02, 0.000000e+00, 6.078302e+00, 0.000000e+00, -4.727492e+01, -0.000000e+00
1137, 4, 3.676879e+02, 0.000000e+00, 6.078302e+00, 0.000000e+00, -4.727492e+01, -0.000000e+00
1137, 5, 3.676879e+02, 0.000000e+00, 6.078302e+00, 0.000000e+00, -4.727492e+01, -0.000000e+00
1137, 6, 3.676879e+02, 0.000000e+00, 6.078302e+00, 0.000000e+00, -4.727492e+01, -0.000000e+00
1137, 7, 3.676879e+02, 0.000000e+00, 6.078302e+00, 0.000000e+00, -4.727492e+01, -0.000000e+00
1137, 8, 3.676879e+02, 0.000000e+00, 6.078302e+00, 0.000000e+00, -4.727492e+01, -0.000000e+00
1138, 1, 3.680415e+02, 0.000000e+00, 5.361733e+00, 0.000000e+00, -4.442230e+01, -0.000000e+00
1138, 2, 3.680415e+02, 0.000000e+00, 5.361733e+00, 0.000000e+00, -4.442230e+01, -0.000000e+00
1138, 3, 3.680415e+02, 0.000000e+00, 5.361733e+00, 0.000000e+00, -4.442230e+01, -0.000000e+00
1138, 4, 3.680415e+02, 0.000000e+00, 5.361733e+00, 0.000000e+00, -4.442230e+01, -0.000000e+00
1138, 5, 3.680415e+02, 0.000000e+00, 5.361733e+00, 0.000000e+00, -4.442230e+01, -0.000000e+00
1138, 6, 3.680415e+02, 0.000000e+00, 5.361733e+00, 0.000000e+00, -4.442230e+01, -0.000000e+00
1138, 7, 3.680415e+02, 0.000000e+00, 5.361733e+00, 0.000000e+00, -4.442230e+01, -0.000000e+00
1138, 8, 3.680415e+02, 0.000000e+00, 5.361733e+00, 0.000000e+00, -4.442230e+01, -0.000000e+00
1139, 1, 3.681393e+02, 0.000000e+00, 5.168769e+00, 0.000000e+00, -4.362141e+01, -0.000000e+00
1139, 2, 3.681393e+02, 0.000000e+00, 5.168769e+00, 0.000000e+00, -4.362141e+01, -0.000000e+00
1139, 3, 3.681393e+02, 0.000000e+00, 5.168769e+00, 0.000000e+00, -4.362141e+01, -0.000000e+00
1139, 4, 3.681393e+02, 0.000000e+00, 5.168769e+00, 0.000000e+00, -4.362141e+01, -0.000000e+00
1139, 5, 3.681393e+02, 0.000000e+00, 5.168769e+00, 0.000000e+00, -4.362141e+01, -0.000000e+00
1139, 6, 3.681393e+02, 0.000000e+00, 5.168769e+00, 0.000000e+00, -4.362141e+01, -0.000000e+00
1139, 7, 3.681393e+02, 0.000000e+00, 5.168769e+00, 0.000000e+00, -4.362141e+01, -0.000000e+00
1139, 8, 3.681393e+02, 0.000000e+00, 5.168769e+00, 0.000000e+00, -4.362141e+01, -0.000000e+00
1140, 1, 3.682405e+02, 0.000000e+00, 4.966362e+00, 0.000000e+00, -4.276466e+01, -0.000000e+00
1140, 2, 3.682405e+02, 0.000000e+00, 4.966362e+00, 0.000000e+00, -4.276466e+01, -0.000000e+00
1140, 3, 3.682405e+02, 0.000000e+00, 4.966362e+00, 0.000000e+00, -4.276466e+01, -0.000000e+00
1140, 4, 3.682405e+02, 0.000000e+00, 4.966362e+00, 0.000000e+00, -4.276466e+01, -0.000000e+00
1140, 5, 3.682405e+02, 0.000000e+00, 4.966362e+00, 0.000000e+00, -4.276466e+01, -0.000000e+00
1140, 6, 3.682405e+02, 0.000000e+00, 4.966362e+00, 0.000000e+00, -4.276466e+01, -0.000000e+00
1140, 7, 3.682405e+02, 0.000000e+00, 4.966362e+00, 0.000000e+00, -4.276466e+01, -0.000000e+00
1140, 8, 3.682405e+02, 0.000000e+00, 4.966362e+00, 0.000000e+00, -4.276466e+01, -0.000000e+00
1141, 1, 3.683378e+02, 0.000000e+00, 4.767944e+00, 0.000000e+00, -4.190721e+01, -0.000000e+00
1141, 2, 3.683378e+02, 0.000000e+00, 4.767944e+00, 0.000000e+00, -4.190721e+01, -0.000000e+00
1141, 3, 3.683378e+02, 0.000000e+00, 4.767944e+00, 0.000000e+00, -4.190721e+01, -0.000000e+00
1141, 4, 3.683378e+02, 0.000000e+00, 4.767944e+00, 0.000000e+00, -4.190721e+01, -0.000000e+00
1141, 5, 3.683378e+02, 0.000000e+00, 4.767944e+00, 0.000000e+00, -4.190721e+01, -0.000000e+00
1141, 6, 3.683378e+02, 0.000000e+00, 4.767944e+00, 0.000000e+00, -4.190721e+01, -0.000000e+00
1141, 7, 3.683378e+02, 0.000000e+00, 4.767944e+00, 0.000000e+00, -4.190721e+01, -0.000000e+00
1141, 8, 3.683378e+02, 0.000000e+00, 4.767944e+00, 0.000000e+00, -4.190721e+01, -0.000000e+00
1142, 1, 3.684305e+02, 0.000000e+00, 4.586010e+00, 0.000000e+00, -4.110506e+01, -0.000000e+00
1142, 2, 3.684305e+02, 0.000000e+00, 4.586010e+00, 0.000000e+00, -4.110506e+01, -0.000000e+00
1142, 3, 3.684305e+02, 0.000000e+00, 4.586010e+00, 0.000000e+00, -4.110506e+01, -0.000000e+00
1142, 4, 3.684305e+02, 0.000000e+00, 4.586010e+00, 0.000000e+00, -4.110506e+01, -0.000000e+00
1142, 5, 3.684305e+02, 0.000000e+00, 4.586010e+00, 0.000000e+00, -4.110506e+01, -0.000000e+00
1142, 6, 3.684305e+02, 0.000000e+00, 4.586010e+00, 0.000000e+00, -4.110506e+01, -0.000000e+00
1142, 7, 3.684305e+02, 0.000000e+00, 4.586010e+00, 0.000000e+00, -4.110506e+01, -0.000000e+00
1142, 8, 3.684305e+02, 0.000000e+00, 4.586010e+00, 0.000000e+00, -4.110506e+01, -0.000000e+00
1143, 1, 3.687778e+02, 0.000000e+00, 3.881711e+00, 0.000000e+00, -3.783502e+01, -0.000000e+00
1143, 2, 3.687778e+02, 0.000000e+00, 3.881711e+00, 0.000000e+00, -3.783502e+01, -0.000000e+00
1143, 3, 3.687778e+02, 0.000000e+00, 3.881711e+00, 0.000000e+00, -3.783502e+01, -0.000000e+00
1143, 4, 3.687778e+02, 0.000000e+00, 3.881711e+00, 0.000000e+00, -3.783502e+01, -0.000000e+00
1143, 5, 3.687778e+02, 0.000000e+00, 3.881711e+00, 0.000000e+00, -3.783502e+01, -0.000000e+00
1143, 6, 3.687778e+02, 0.000000e+00, 3.881711e+00, 0.000000e+00, -3.783502e+01, -0.000000e+00
1143, 7, 3.687778e+02, 0.000000e+00, 3.881711e+00, 0.000000e+00, -3.783502e+01, -0.000000e+00
1143, 8, 3.687778e+02, 0.000000e+00, 3.881711e+00, 0.000000e+00, -3.783502e+01, -0.000000e+00
1144, 1, 3.688641e+02, 0.000000e+00, 3.712031e+00, 0.000000e+00, -3.700317e+01, -0.000000e+00
1144, 2, 3.688641e+02, 0.000000e+00, 3.712031e+00, 0.000000e+00, -3.700317e+01, -0.000000e+00
1144, 3, 3.688641e+02, 0.000000e+00, 3.712031e+00, 0.000000e+00, -3.700317e+01, -0.000000e+00
1144, 4, 3.688641e+02, 0.000000e+00, 3.712031e+00, 0.000000e+00, -3.700317e+01, -0.000000e+00
1144, 5, 3.688641e+02, 0.000000e+00, 3.712031e+00, 0.000000e+00, -3.700317e+01, -0.000000e+00
1144, 6, 3.688641e+02, 0.000000e+00, 3.712031e+00, 0.000000e+00, -3.700317e+01, -0.000000e+00
1144, 7, 3.688641e+02, 0.000000e+00, 3.712031e+00, 0.000000e+00, -3.700317e+01, -0.000000e+00
1144, 8, 3.688641e+02, 0.000000e+00, 3.712031e+00, 0.000000e+00, -3.700317e+01, -0.000000e+00
1145, 1, 3.689572e+02, 0.000000e+00, 3.529740e+00, 0.000000e+00, -3.608771e+01, -0.000000e+00
1145, 2, 3.689572e+02, 0.000000e+00, 3.529740e+00, 0.000000e+00, -3.608771e+01, -0.000000e+00
1145, 3, 3.689572e+02, 0.000000e+00, 3.529740e+00, 0.000000e+00, -3.608771e+01, -0.000000e+00
1145, 4, 3.689572e+02, 0.000000e+00, 3.529740e+00, 0.000000e+00, -3.608771e+01, -0.000000e+00
1145, 5, 3.689572e+02, 0.000000e+00, 3.529740e+00, 0.000000e+00, -3.608771e+01, -0.000000e+00
1145, 6, 3.689572e+02, 0.000000e+00, 3.529740e+00, 0.000000e+00, -3.608771e+01, -0.000000e+00
1145, 7, 3.689572e+02, 0.000000e+00, 3.529740e+00, 0.000000e+00, -3.608771e+01, -0.000000e+00
1145, 8, 3.689572e+02, 0.000000e+00, 3.529740e+00, 0.000000e+00, -3.608771e+01, -0.000000e+00
1146, 1, 3.690457e+02, 0.000000e+00, 3.351996e+00, 0.000000e+00, -3.517158e+01, -0.000000e+00
1146, 2, 3.690457e+02, 0.000000e+00, 3.351996e+00, 0.000000e+00, -3.517158e+01, -0.000000e+00
1146, 3, 3.690457e+02, 0.000000e+00, 3.351996e+00, 0.000000e+00, -3.517158e+01, -0.000000e+00
1146, 4, 3.690457e+02, 0.000000e+00, 3.351996e+00, 0.000000e+00, -3.517158e+01, -0.000000e+00
1146, 5, 3.690457e+02, 0.000000e+00, 3.351996e+00, 0.000000e+00, -3.517158e+01, -0.000000e+00
1146, 6, 3.690457e+02, 0.000000e+00, 3.351996e+00, 0.000000e+00, -3.517158e+01, -0.000000e+00
1146, 7, 3.690457e+02, 0.000000e+00, 3.351996e+00, 0.000000e+00, -3.517158e+01, -0.000000e+00
1146, 8, 3.690457e+02, 0.000000e+00, 3.351996e+00, 0.000000e+00, -3.517158e+01, -0.000000e+00
1147, 1, 3.691259e+02, 0.000000e+00, 3.194392e+00, 0.000000e+00, -3.433851e+01, -0.000000e+00
1147, 2, 3.691259e+02, 0.000000e+00, 3.194392e+00, 0.000000e+00, -3.433851e+01, -0.000000e+00
1147, 3, 3.691259e+02, 0.000000e+00, 3.194392e+00, 0.000000e+00, -3.433851e+01, -0.000000e+00
1147, 4, 3.691259e+02, 0.000000e+00, 3.194392e+00, 0.000000e+00, -3.433851e+01, -0.000000e+00
1147, 5, 3.691259e+02, 0.000000e+00, 3.194392e+00, 0.000000e+00, -3.433851e+01, -0.000000e+00
1147, 6, 3.691259e+02, 0.000000e+00, 3.194392e+00, 0.000000e+00, -3.433851e+01, -0.000000e+00
1147, 7, 3.691259e+02, 0.000000e+00, 3.194392e+00, 0.000000e+00, -3.433851e+01, -0.000000e+00
1147, 8, 3.691259e+02, 0.000000e+00, 3.194392e+00, 0.000000e+00, -3.433851e+01, -0.000000e+00
1148, 1, 3.693797e+02, 0.000000e+00, 2.678816e+00, 0.000000e+00, -3.145632e+01, -0.000000e+00
1148, 2, 3.693797e+02, 0.000000e+00, 2.678816e+00, 0.000000e+00, -3.145632e+01, -0.000000e+00
1148, 3, 3.693797e+02, 0.000000e+00, 2.678816e+00, 0.000000e+00, -3.145632e+01, -0.000000e+00
1148, 4, 3.693797e+02, 0.000000e+00, 2.678816e+00, 0.000000e+00, -3.145632e+01, -0.000000e+00
1148, 5, 3.693797e+02, 0.000000e+00, 2.678816e+00, 0.000000e+00, -3.145632e+01, -0.000000e+00
1148, 6, 3.693797e+02, 0.000000e+00, 2.678816e+00, 0.000000e+00, -3.145632e+01, -0.000000e+00
1148, 7, 3.693797e+02, 0.000000e+00, 2.678816e+00, 0.000000e+00, -3.145632e+01, -0.000000e+00
1148, 8, 3.693797e+02, 0.000000e+00, 2.678816e+00, 0.000000e+00, -3.145632e+01, -0.000000e+00
1149, 1, 3.694490e+02, 0.000000e+00, 2.538045e+00, 0.000000e+00, -3.062154e+01, -0.000000e+00
1149, 2, 3.694490e+02, 0.000000e+00, 2.538045e+00, 0.000000e+00, -3.062154e+01, -0.000000e+00
1149, 3, 3.694490e+02, 0.000000e+00, 2.538045e+00, 0.000000e+00, -3.062154e+01, -0.000000e+00
1149, 4, 3.694490e+02, 0.000000e+00, 2.538045e+00, 0.000000e+00, -3.062154e+01, -0.000000e+00
1149, 5, 3.694490e+02, 0.000000e+00, 2.538045e+00, 0.000000e+00, -3.062154e+01, -0.000000e+00
1149, 6, 3.694490e+02, 0.000000e+00, 2.538045e+00, 0.000000e+00, -3.062154e+01, -0.000000e+00
1149, 7, 3.694490e+02, 0.000000e+00, 2.538045e+00, 0.000000e+00, -3.062154e+01, -0.000000e+00
1149, 8, 3.694490e+02, 0.000000e+00, 2.538045e+00, 0.000000e+00, -3.062154e+01, -0.000000e+00
1150, 1, 3.695222e+02, 0.000000e+00, 2.387564e+00, 0.000000e+00, -2.970283e+01, -0.000000e+00
1150, 2, 3.695222e+02, 0.000000e+00, 2.387564e+00, 0.000000e+00, -2.970283e+01, -0.000000e+00
1150, 3, 3.695222e+02, 0.000000e+00, 2.387564e+00, 0.000000e+00, -2.970283e+01, -0.000000e+00
1150, 4, 3.695222e+02, 0.000000e+00, 2.387564e+00, 0.000000e+00, -2.970283e+01, -0.000000e+00
1150, 5, 3.695222e+02, 0.000000e+00, 2.387564e+00, 0.000000e+00, -2.970283e+01, -0.000000e+00
1150, 6, 3.695222e+02, 0.000000e+00, 2.387564e+00, 0.000000e+00, -2.970283e+01, -0.000000e+00
1150, 7, 3.695222e+02, 0.000000e+00, 2.387564e+00, 0.000000e+00, -2.970283e+01, -0.000000e+00
1150, 8, 3.695222e+02, 0.000000e+00, 2.387564e+00, 0.000000e+00, -2.970283e+01, -0.000000e+00
1151, 1, 3.695907e+02, 0.000000e+00, 2.241654e+00, 0.000000e+00, -2.878358e+01, -0.000000e+00
1151, 2, 3.695907e+02, 0.000000e+00, 2.241654e+00, 0.000000e+00, -2.878358e+01, -0.000000e+00
1151, 3, 3.695907e+02, 0.000000e+00, 2.241654e+00, 0.000000e+00, -2.878358e+01, -0.000000e+00
1151, 4, 3.695907e+02, 0.000000e+00, 2.241654e+00, 0.000000e+00, -2.878358e+01, -0.000000e+00
1151, 5, 3.695907e+02, 0.000000e+00, 2.241654e+00, 0.000000e+00, -2.878358e+01, -0.000000e+00
1151, 6, 3.695907e+02, 0.000000e+00, 2.241654e+00, 0.000000e+00, -2.878358e+01, -0.000000e+00
1151, 7, 3.695907e+02, 0.000000e+00, 2.241654e+00, 0.000000e+00, -2.878358e+01, -0.000000e+00
1151, 8, 3.695907e+02, 0.000000e+00, 2.241654e+00, 0.000000e+00, -2.878358e+01, -0.000000e+00
1152, 1, 3.696598e+02, 0.000000e+00, 2.113039e+00, 0.000000e+00, -2.794827e+01, -0.000000e+00
1152, 2, 3.696598e+02, 0.000000e+00, 2.113039e+00, 0.000000e+00, -2.794827e+01, -0.000000e+00
1152, 3, 3.696598e+02, 0.000000e+00, 2.113039e+00, 0.000000e+00, -2.794827e+01, -0.000000e+00
1152, 4, 3.696598e+02, 0.000000e+00, 2.113039e+00, 0.000000e+00, -2.794827e+01, -0.000000e+00
1152, 5, 3.696598e+02, 0.000000e+00, 2.113039e+00, 0.000000e+00, -2.794827e+01, -0.000000e+00
1152, 6, 3.696598e+02, 0.000000e+00, 2.113039e+00, 0.000000e+00, -2.794827e+01, -0.000000e+00
1152, 7, 3.696598e+02, 0.000000e+00, 2.113039e+00, 0.000000e+00, -2.794827e+01, -0.000000e+00
1152, 8, 3.696598e+02, 0.000000e+00, 2.113039e+00, 0.000000e+00, -2.794827e+01, -0.000000e+00
1153, 1, 3.698727e+02, 0.000000e+00, 1.685945e+00, 0.000000e+00, -2.497169e+01, -0.000000e+00
1153, 2, 3.698727e+02, 0.000000e+00, 1.685945e+00, 0.000000e+00, -2.497169e+01, -0.000000e+00
1153, 3, 3.698727e+02, 0.000000e+00, 1.685945e+00, 0.000000e+00, -2.497169e+01, -0.000000e+00
1153, 4, 3.698727e+02, 0.000000e+00, 1.685945e+00, 0.000000e+00, -2.497169e+01, -0.000000e+00
1153, 5, 3.698727e+02, 0.000000e+00, 1.685945e+00, 0.000000e+00, -2.497169e+01, -0.000000e+00
1153, 6, 3.698727e+02, 0.000000e+00, 1.685945e+00, 0.000000e+00, -2.497169e+01, -0.000000e+00
1153, 7, 3.698727e+02, 0.000000e+00, 1.685945e+00, 0.000000e+00, -2.497169e+01, -0.000000e+00
1153, 8, 3.698727e+02, 0.000000e+00, 1.685945e+00, 0.000000e+00, -2.497169e+01, -0.000000e+00
1154, 1, 3.699296e+02, 0.000000e+00, 1.563649e+00, 0.000000e+00, -2.405078e+01, -0.000000e+00
1154, 2, 3.699296e+02, 0.000000e+00, 1.563649e+00, 0.000000e+00, -2.405078e+01, -0.000000e+00
1154, 3, 3.699296e+02, 0.000000e+00, 1.563649e+00, 0.000000e+00, -2.405078e+01, -0.000000e+00
1154, 4, 3.699296e+02, 0.000000e+00, 1.563649e+00, 0.000000e+00, -2.405078e+01, -0.000000e+00
1154, 5, 3.699296e+02, 0.000000e+00, 1.563649e+00, 0.000000e+00, -2.405078e+01, -0.000000e+00
1154, 6, 3.699296e+02, 0.000000e+00, 1.563649e+00, 0.000000e+00, -2.405078e+01, -0.000000e+00
1154, 7, 3.699296e+02, 0.000000e+00, 1.563649e+00, 0.000000e+00, -2.405078e+01, -0.000000e+00
1154, 8, 3.699296e+02, 0.000000e+00, 1.563649e+00, 0.000000e+00, -2.405078e+01, -0.000000e+00
1155, 1, 3.699878e+02, 0.000000e+00, 1.445962e+00, 0.000000e+00, -2.312982e+01, -0.000000e+00
1155, 2, 3.699878e+02, 0.000000e+00, 1.445962e+00, 0.000000e+00, -2.312982e+01, -0.000000e+00
1155, 3, 3.699878e+02, 0.000000e+00, 1.445962e+00, 0.000000e+00, -2.312982e+01, -0.000000e+00
1155, 4, 3.699878e+02, 0.000000e+00, 1.445962e+00, 0.000000e+00, -2.312982e+01, -0.000000e+00
1155, 5, 3.699878e+02, 0.000000e+00, 1.445962e+00, 0.000000e+00, -2.312982e+01, -0.000000e+00
1155, 6, 3.699878e+02, 0.000000e+00, 1.445962e+00, 0.000000e+00, -2.312982e+01, -0.000000e+00
1155, 7, 3.699878e+02, 0.000000e+00, 1.445962e+00, 0.000000e+00, -2.312982e+01, -0.000000e+00
1155, 8, 3.699878e+02, 0.000000e+00, 1.445962e+00, 0.000000e+00, -2.312982e+01, -0.000000e+00
1156, 1, 3.700473e+02, 0.000000e+00, 1.332884e+00, 0.000000e+00, -2.220879e+01, -0.000000e+00
1156, 2, 3.700473e+02, 0.000000e+00, 1.332884e+00, 0.000000e+00, -2.220879e+01, -0.000000e+00
1156, 3, 3.700473e+02, 0.000000e+00, 1.332884e+00, 0.000000e+00, -2.220879e+01, -0.000000e+00
1156, 4, 3.700473e+02, 0.000000e+00, 1.332884e+00, 0.000000e+00, -2.220879e+01, -0.000000e+00
1156, 5, 3.700473e+02, 0.000000e+00, 1.332884e+00, 0.000000e+00, -2.220879e+01, -0.000000e+00
1156, 6, 3.700473e+02, 0.000000e+00, 1.332884e+00, 0.000000e+00, -2.220879e+01, -0.000000e+00
1156, 7, 3.700473e+02, 0.000000e+00, 1.332884e+00, 0.000000e+00, -2.220879e+01, -0.000000e+00
1156, 8, 3.700473e+02, 0.000000e+00, 1.332884e+00, 0.000000e+00, -2.220879e+01, -0.000000e+00
1157, 1, 3.701022e+02, 0.000000e+00, 1.224397e+00, 0.000000e+00, -2.128737e+01, -0.000000e+00
1157, 2, 3.701022e+02, 0.000000e+00, 1.224397e+00, 0.000000e+00, -2.128737e+01, -0.000000e+00
1157, 3, 3.701022e+02, 0.000000e+00, 1.224397e+00, 0.000000e+00, -2.128737e+01, -0.000000e+00
1157, 4, 3.701022e+02, 0.000000e+00, 1.224397e+00, 0.000000e+00, -2.128737e+01, -0.000000e+00
1157, 5, 3.701022e+02, 0.000000e+00, 1.224397e+00, 0.000000e+00, -2.128737e+01, -0.000000e+00
1157, 6, 3.701022e+02, 0.000000e+00, 1.224397e+00, 0.000000e+00, -2.128737e+01, -0.000000e+00
1157, 7, 3.701022e+02, 0.000000e+00, 1.224397e+00, 0.000000e+00, -2.128737e+01, -0.000000e+00
1157, 8, 3.701022e+02, 0.000000e+00, 1.224397e+00, 0.000000e+00, -2.128737e+01, -0.000000e+00
1158, 1, 3.702833e+02, 0.000000e+00, 8.647928e-01, 0.000000e+00, -1.789465e+01, -0.000000e+00
1158, 2, 3.702833e+02, 0.000000e+00, 8.647928e-01, 0.000000e+00, -1.789465e+01, -0.000000e+00
1158, 3, 3.702833e+02, 0.000000e+00, 8.647928e-01, 0.000000e+00, -1.789465e+01, -0.000000e+00
1158, 4, 3.702833e+02, 0.000000e+00, 8.647928e-01, 0.000000e+00, -1.789465e+01, -0.000000e+00
1158, 5, 3.702833e+02, 0.000000e+00, 8.647928e-01, 0.000000e+00, -1.789465e+01, -0.000000e+00
1158, 6, 3.702833e+02, 0.000000e+00, 8.647928e-01, 0.000000e+00, -1.789465e+01, -0.000000e+00
1158, 7, 3.702833e+02, 0.000000e+00, 8.647928e-01, 0.000000e+00, -1.789465e+01, -0.000000e+00
1158, 8, 3.702833e+02, 0.000000e+00, 8.647928e-01, 0.000000e+00, -1.789465e+01, -0.000000e+00
1159, 1, 3.703206e+02, 0.000000e+00, 7.858401e-01, 0.000000e+00, -1.705910e+01, -0.000000e+00
1159, 2, 3.703206e+02, 0.000000e+00, 7.858401e-01, 0.000000e+00, -1.705910e+01, -0.000000e+00
1159, 3, 3.703206e+02, 0.000000e+00, 7.858401e-01, 0.000000e+00, -1.705910e+01, -0.000000e+00
1159, 4, 3.703206e+02, 0.000000e+00, 7.858401e-01, 0.000000e+00, -1.705910e+01, -0.000000e+00
1159, 5, 3.703206e+02, 0.000000e+00, 7.858401e-01, 0.000000e+00, -1.705910e+01, -0.000000e+00
1159, 6, 3.703206e+02, 0.000000e+00, 7.858401e-01, 0.000000e+00, -1.705910e+01, -0.000000e+00
1159, 7, 3.703206e+02, 0.000000e+00, 7.858401e-01, 0.000000e+00, -1.705910e+01, -0.000000e+00
1159, 8, 3.703206e+02, 0.000000e+00, 7.858401e-01, 0.000000e+00, -1.705910e+01, -0.000000e+00
1160, 1, 3.703618e+02, 0.000000e+00, 7.030241e-01, 0.000000e+00, -1.613609e+01, -0.000000e+00
1160, 2, 3.703618e+02, 0.000000e+00, 7.030241e-01, 0.000000e+00, -1.613609e+01, -0.000000e+00
1160, 3, 3.703618e+02, 0.000000e+00, 7.030241e-01, 0.000000e+00, -1.613609e+01, -0.000000e+00
1160, 4, 3.703618e+02, 0.000000e+00, 7.030241e-01, 0.000000e+00, -1.613609e+01, -0.000000e+00
1160, 5, 3.703618e+02, 0.000000e+00, 7.030241e-01, 0.000000e+00, -1.613609e+01, -0.000000e+00
1160, 6, 3.703618e+02, 0.000000e+00, 7.030241e-01, 0.000000e+00, -1.613609e+01, -0.000000e+00
1160, 7, 3.703618e+02, 0.000000e+00, 7.030241e-01, 0.000000e+00, -1.613609e+01, -0.000000e+00
1160, 8, 3.703618e+02, 0.000000e+00, 7.030241e-01, 0.000000e+00, -1.613609e+01, -0.000000e+00
1161, 1, 3.704043e+02, 0.000000e+00, 6.248202e-01, 0.000000e+00, -1.521302e+01, -0.000000e+00
1161, 2, 3.704043e+02, 0.000000e+00, 6.248202e-01, 0.000000e+00, -1.521302e+01, -0.000000e+00
1161, 3, 3.704043e+02, 0.000000e+00, 6.248202e-01, 0.000000e+00, -1.521302e+01, -0.000000e+00
1161, 4, 3.704043e+02, 0.000000e+00, 6.248202e-01, 0.000000e+00, -1.521302e+01, -0.000000e+00
1161, 5, 3.704043e+02, 0.000000e+00, 6.248202e-01, 0.000000e+00, -1.521302e+01, -0.000000e+00
1161, 6, 3.704043e+02, 0.000000e+00, 6.248202e-01, 0.000000e+00, -1.521302e+01, -0.000000e+00
1161, 7, 3.704043e+02, 0.000000e+00, 6.248202e-01, 0.000000e+00, -1.521302e+01, -0.000000e+00
1161, 8, 3.704043e+02, 0.000000e+00, 6.248202e-01, 0.000000e+00, -1.521302e+01, -0.000000e+00
1162, 1, 3.704356e+02, 0.000000e+00, 5.577622e-01, 0.000000e+00, -1.437411e+01, -0.000000e+00
1162, 2, 3.704356e+02, 0.000000e+00, 5.577622e-01, 0.000000e+00, -1.437411e+01, -0.000000e+00
1162, 3, 3.704356e+02, 0.000000e+00, 5.577622e-01, 0.000000e+00, -1.437411e+01, -0.000000e+00
1162, 4, 3.704356e+02, 0.000000e+00, 5.577622e-01, 0.000000e+00, -1.437411e+01, -0.000000e+00
1162, 5, 3.704356e+02, 0.000000e+00, 5.577622e-01, 0.000000e+00, -1.437411e+01, -0.000000e+00
1162, 6, 3.704356e+02, 0.000000e+00, 5.577622e-01, 0.000000e+00, -1.437411e+01, -0.000000e+00
1162, 7, 3.704356e+02, 0.000000e+00, 5.577622e-01, 0.000000e+00, -1.437411e+01, -0.000000e+00
1162, 8, 3.704356e+02, 0.000000e+00, 5.577622e-01, 0.000000e+00, -1.437411e+01, -0.000000e+00
1163, 1, 3.705375e+02, 0.000000e+00, 3.547453e-01, 0.000000e+00, -1.146501e+01, -0.000000e+00
1163, 2, 3.705375e+02, 0.000000e+00, 3.547453e-01, 0.000000e+00, -1.146501e+01, -0.000000e+00
1163, 3, 3.705375e+02, 0.000000e+00, 3.547453e-01, 0.000000e+00, -1.146501e+01, -0.000000e+00
1163, 4, 3.705375e+02, 0.000000e+00, 3.547453e-01, 0.000000e+00, -1.146501e+01, -0.000000e+00
1163, 5, 3.705375e+02, 0.000000e+00, 3.547453e-01, 0.000000e+00, -1.146501e+01, -0.000000e+00
1163, 6, 3.705375e+02, 0.000000e+00, 3.547453e-01, 0.000000e+00, -1.146501e+01, -0.000000e+00
1163, 7, 3.705375e+02, 0.000000e+00, 3.547453e-01, 0.000000e+00, -1.146501e+01, -0.000000e+00
1163, 8, 3.705375e+02, 0.000000e+00, 3.547453e-01, 0.000000e+00, -1.146501e+01, -0.000000e+00
1164, 1, 3.705638e+02, 0.000000e+00, 3.046170e-01, 0.000000e+00, -1.062450e+01, -0.000000e+00
1164, 2, 3.705638e+02, 0.000000e+00, 3.046170e-01, 0.000000e+00, -1.062450e+01, -0.000000e+00
1164, 3, 3.705638e+02, 0.000000e+00, 3.046170e-01, 0.000000e+00, -1.062450e+01, -0.000000e+00
1164, 4, 3.705638e+02, 0.000000e+00, 3.046170e-01, 0.000000e+00, -1.062450e+01, -0.000000e+00
1164, 5, 3.705638e+02, 0.000000e+00, 3.046170e-01, 0.000000e+00, -1.062450e+01, -0.000000e+00
1164, 6, 3.705638e+02, 0.000000e+00, 3.046170e-01, 0.000000e+00, -1.062450e+01, -0.000000e+00
1164, 7, 3.705638e+02, 0.000000e+00, 3.046170e-01, 0.000000e+00, -1.062450e+01, -0.000000e+00
1164, 8, 3.705638e+02, 0.000000e+00, 3.046170e-01, 0.000000e+00, -1.062450e+01, -0.000000e+00
1165, 1, 3.705907e+02, 0.000000e+00, 2.539112e-01, 0.000000e+00, -9.700367e+00, -0.000000e+00
1165, 2, 3.705907e+02, 0.000000e+00, 2.539112e-01, 0.000000e+00, -9.700367e+00, -0.000000e+00
1165, 3, 3.705907e+02, 0.000000e+00, 2.539112e-01, 0.000000e+00, -9.700367e+00, -0.000000e+00
1165, 4, 3.705907e+02, 0.000000e+00, 2.539112e-01, 0.000000e+00, -9.700367e+00, -0.000000e+00
1165, 5, 3.705907e+02, 0.000000e+00, 2.539112e-01, 0.000000e+00, -9.700367e+00, -0.000000e+00
1165, 6, 3.705907e+02, 0.000000e+00, 2.539112e-01, 0.000000e+00, -9.700367e+00, -0.000000e+00
1165, 7, 3.705907e+02, 0.000000e+00, 2.539112e-01, 0.000000e+00, -9.700367e+00, -0.000000e+00
1165, 8, 3.705907e+02, 0.000000e+00, 2.539112e-01, 0.000000e+00, -9.700367e+00, -0.000000e+00
1166, 1, 3.706130e+02, 0.000000e+00, 2.078152e-01, 0.000000e+00, -8.776048e+00, -0.000000e+00
1166, 2, 3.706130e+02, 0.000000e+00, 2.078152e-01, 0.000000e+00, -8.776048e+00, -0.000000e+00
1166, 3, 3.706130e+02, 0.000000e+00, 2.078152e-01, 0.000000e+00, -8.776048e+00, -0.000000e+00
1166, 4, 3.706130e+02, 0.000000e+00, 2.078152e-01, 0.000000e+00, -8.776048e+00, -0.000000e+00
1166, 5, 3.706130e+02, 0.000000e+00, 2.078152e-01, 0.000000e+00, -8.776048e+00, -0.000000e+00
1166, 6, 3.706130e+02, 0.000000e+00, 2.078152e-01, 0.000000e+00, -8.776048e+00, -0.000000e+00
1166, 7, 3.706130e+02, 0.000000e+00, 2.078152e-01, 0.000000e+00, -8.776048e+00, -0.000000e+00
1166, 8, 3.706130e+02, 0.000000e+00, 2.078152e-01, 0.000000e+00, -8.776048e+00, -0.000000e+00
1167, 1, 3.706331e+02, 0.000000e+00, 1.699284e-01, 0.000000e+00, -7.936063e+00, -0.000000e+00
1167, 2, 3.706331e+02, 0.000000e+00, 1.699284e-01, 0.000000e+00, -7.936063e+00, -0.000000e+00
1167, 3, 3.706331e+02, 0.000000e+00, 1.699284e-01, 0.000000e+00, -7.936063e+00, -0.000000e+00
1167, 4, 3.706331e+02, 0.000000e+00, 1.699284e-01, 0.000000e+00, -7.936063e+00, -0.000000e+00
1167, 5, 3.706331e+02, 0.000000e+00, 1.699284e-01, 0.000000e+00, -7.936063e+00, -0.000000e+00
1167, 6, 3.706331e+02, 0.000000e+00, 1.699284e-01, 0.000000e+00, -7.936063e+00, -0.000000e+00
1167, 7, 3.706331e+02, 0.000000e+00, 1.699284e-01, 0.000000e+00, -7.936063e+00, -0.000000e+00
1167, 8, 3.706331e+02, 0.000000e+00, 1.699284e-01, 0.000000e+00, -7.936063e+00, -0.000000e+00
1168, 1, 3.706754e+02, 0.000000e+00, 6.807077e-02, 0.000000e+00, -5.023162e+00, -0.000000e+00
1168, 2, 3.706754e+02, 0.000000e+00, 6.807077e-02, 0.000000e+00, -5.023162e+00, -0.000000e+00
1168, 3, 3.706754e+02, 0.000000e+00, 6.807077e-02, 0.000000e+00, -5.023162e+00, -0.000000e+00
1168, 4, 3.706754e+02, 0.000000e+00, 6.807077e-02, 0.000000e+00, -5.023162e+00, -0.000000e+00
1168, 5, 3.706754e+02, 0.000000e+00, 6.807077e-02, 0.000000e+00, -5.023162e+00, -0.000000e+00
1168, 6, 3.706754e+02, 0.000000e+00, 6.807077e-02, 0.000000e+00, -5.023162e+00, -0.000000e+00
1168, 7, 3.706754e+02, 0.000000e+00, 6.807077e-02, 0.000000e+00, -5.023162e+00, -0.000000e+00
1168, 8, 3.706754e+02, 0.000000e+00, 6.807077e-02, 0.000000e+00, -5.023162e+00, -0.000000e+00
1169, 1, 3.706897e+02, 0.000000e+00, 4.782277e-02, 0.000000e+00, -4.210393e+00, -0.000000e+00
1169, 2, 3.706897e+02, 0.000000e+00, 4.782277e-02, 0.000000e+00, -4.210393e+00, -0.000000e+00
1169, 3, 3.706897e+02, 0.000000e+00, 4.782277e-02, 0.000000e+00, -4.210393e+00, -0.000000e+00
1169, 4, 3.706897e+02, 0.000000e+00, 4.782277e-02, 0.000000e+00, -4.210393e+00, -0.000000e+00
1169, 5, 3.706897e+02, 0.000000e+00, 4.782277e-02, 0.000000e+00, -4.210393e+00, -0.000000e+00
1169, 6, 3.706897e+02, 0.000000e+00, 4.782277e-02, 0.000000e+00, -4.210393e+00, -0.000000e+00
1169, 7, 3.706897e+02, 0.000000e+00, 4.782277e-02, 0.000000e+00, -4.210393e+00, -0.000000e+00
1169, 8, 3.706897e+02, 0.000000e+00, 4.782277e-02, 0.000000e+00, -4.210393e+00, -0.000000e+00
1170, 1, 3.707015e+02, 0.000000e+00, 3.012355e-02, 0.000000e+00, -3.341683e+00, -0.000000e+00
1170, 2, 3.707015e+02, 0.000000e+00, 3.012355e-02, 0.000000e+00, -3.341683e+00, -0.000000e+00
1170, 3, 3.707015e+02, 0.000000e+00, 3.012355e-02, 0.000000e+00, -3.341683e+00, -0.000000e+00
1170, 4, 3.707015e+02, 0.000000e+00, 3.012355e-02, 0.000000e+00, -3.341683e+00, -0.000000e+00
1170, 5, 3.707015e+02, 0.000000e+00, 3.012355e-02, 0.000000e+00, -3.341683e+00, -0.000000e+00
1170, 6, 3.707015e+02, 0.000000e+00, 3.012355e-02, 0.000000e+00, -3.341683e+00, -0.000000e+00
1170, 7, 3.707015e+02, 0.000000e+00, 3.012355e-02, 0.000000e+00, -3.341683e+00, -0.000000e+00
1170, 8, 3.707015e+02, 0.000000e+00, 3.012355e-02, 0.000000e+00, -3.341683e+00, -0.000000e+00
1171, 1, 3.707091e+02, 0.000000e+00, 1.649616e-02, 0.000000e+00, -2.472909e+00, -0.000000e+00
1171, 2, 3.707091e+02, 0.000000e+00, 1.649616e-02, 0.000000e+00, -2.472909e+00, -0.000000e+00
1171, 3, 3.707091e+02, 0.000000e+00, 1.649616e-02, 0.000000e+00, -2.472909e+00, -0.000000e+00
1171, 4, 3.707091e+02, 0.000000e+00, 1.649616e-02, 0.000000e+00, -2.472909e+00, -0.000000e+00
1171, 5, 3.707091e+02, 0.000000e+00, 1.649616e-02, 0.000000e+00, -2.472909e+00, -0.000000e+00
1171, 6, 3.707091e+02, 0.000000e+00, 1.649616e-02, 0.000000e+00, -2.472909e+00, -0.000000e+00
1171, 7, 3.707091e+02, 0.000000e+00, 1.649616e-02, 0.000000e+00, -2.472909e+00, -0.000000e+00
1171, 8, 3.707091e+02, 0.000000e+00, 1.649616e-02, 0.000000e+00, -2.472909e+00, -0.000000e+00
1172, 1, 3.707124e+02, 0.000000e+00, 7.294729e-03, 0.000000e+00, -1.644459e+00, -0.000000e+00
1172, 2, 3.707124e+02, 0.000000e+00, 7.294729e-03, 0.000000e+00, -1.644459e+00, -0.000000e+00
1172, 3, 3.707124e+02, 0.000000e+00, 7.294729e-03, 0.000000e+00, -1.644459e+00, -0.000000e+00
1172, 4, 3.707124e+02, 0.000000e+00, 7.294729e-03, 0.000000e+00, -1.644459e+00, -0.000000e+00
1172, 5, 3.707124e+02, 0.000000e+00, 7.294729e-03, 0.000000e+00, -1.644459e+00, -0.000000e+00
1172, 6, 3.707124e+02, 0.000000e+00, 7.294729e-03, 0.000000e+00, -1.644459e+00, -0.000000e+00
1172, 7, 3.707124e+02, 0.000000e+00, 7.294729e-03, 0.000000e+00, -1.644459e+00, -0.000000e+00
1172, 8, 3.707124e+02, 0.000000e+00, 7.294729e-03, 0.000000e+00, -1.644459e+00, -0.000000e+00
1173, 1, 3.707124e+02, 0.000000e+00, 7.314060e-03, 0.000000e+00, 1.646637e+00, 0.000000e+00
1173, 2, 3.707124e+02, 0.000000e+00, 7.314060e-03, 0.000000e+00, 1.646637e+00, 0.000000e+00
1173, 3, 3.707124e+02, 0.000000e+00, 7.314060e-03, 0.000000e+00, 1.646637e+00, 0.000000e+00
1173, 4, 3.707124e+02, 0.000000e+00, 7.314060e-03, 0.000000e+00, 1.646637e+00, 0.000000e+00
1173, 5, 3.707124e+02, 0.000000e+00, 7.314060e-03, 0.000000e+00, 1.646637e+00, 0.000000e+00
1173, 6, 3.707124e+02, 0.000000e+00, 7.314060e-03, 0.000000e+00, 1.646637e+00, 0.000000e+00
1173, 7, 3.707124e+02, 0.000000e+00, 7.314060e-03, 0.000000e+00, 1.646637e+00, 0.000000e+00
1173, 8, 3.707124e+02, 0.000000e+00, 7.314060e-03, 0.000000e+00, 1.646637e+00, 0.000000e+00
1174, 1, 3.707087e+02, 0.000000e+00, 1.690204e-02, 0.000000e+00, 2.503145e+00, 0.000000e+00
1174, 2, 3.707087e+02, 0.000000e+00, 1.690204e-02, 0.000000e+00, 2.503145e+00, 0.000000e+00
1174, 3, 3.707087e+02, 0.000000e+00, 1.690204e-02, 0.000000e+00, 2.503145e+00, 0.000000e+00
1174, 4, 3.707087e+02, 0.000000e+00, 1.690204e-02, 0.000000e+00, 2.503145e+00, 0.000000e+00
1174, 5, 3.707087e+02, 0.000000e+00, 1.690204e-02, 0.000000e+00, 2.503145e+00, 0.000000e+00
1174, 6, 3.707087e+02, 0.000000e+00, 1.690204e-02, 0.000000e+00, 2.503145e+00, 0.000000e+00
1174, 7, 3.707087e+02, 0.000000e+00, 1.690204e-02, 0.000000e+00, 2.503145e+00, 0.000000e+00
1174, 8, 3.707087e+02, 0.000000e+00, 1.690204e-02, 0.000000e+00, 2.503145e+00, 0.000000e+00
1175, 1, 3.706999e+02, 0.000000e+00, 3.169906e-02, 0.000000e+00, 3.427950e+00, 0.000000e+00
1175, 2, 3.706999e+02, 0.000000e+00, 3.169906e-02, 0.000000e+00, 3.427950e+00, 0.000000e+00
1175, 3, 3.706999e+02, 0.000000e+00, 3.169906e-02, 0.000000e+00, 3.427950e+00, 0.000000e+00
1175, 4, 3.706999e+02, 0.000000e+00, 3.169906e-02, 0.000000e+00, 3.427950e+00, 0.000000e+00
1175, 5, 3.706999e+02, 0.000000e+00, 3.169906e-02, 0.000000e+00, 3.427950e+00, 0.000000e+00
1175, 6, 3.706999e+02, 0.000000e+00, 3.169906e-02, 0.000000e+00, 3.427950e+00, 0.000000e+00
1175, 7, 3.706999e+02, 0.000000e+00, 3.169906e-02, 0.000000e+00, 3.427950e+00, 0.000000e+00
1175, 8, 3.706999e+02, 0.000000e+00, 3.169906e-02, 0.000000e+00, 3.427950e+00, 0.000000e+00
1176, 1, 3.706924e+02, 0.000000e+00, 5.111086e-02, 0.000000e+00, 4.352747e+00, 0.000000e+00
1176, 2, 3.706924e+02, 0.000000e+00, 5.111086e-02, 0.000000e+00, 4.352747e+00, 0.000000e+00
1176, 3, 3.706924e+02, 0.000000e+00, 5.111086e-02, 0.000000e+00, 4.352747e+00, 0.000000e+00
1176, 4, 3.706924e+02, 0.000000e+00, 5.111086e-02, 0.000000e+00, 4.352747e+00, 0.000000e+00
1176, 5, 3.706924e+02, 0.000000e+00, 5.111086e-02, 0.000000e+00, 4.352747e+00, 0.000000e+00
1176, 6, 3.706924e+02, 0.000000e+00, 5.111086e-02, 0.000000e+00, 4.352747e+00, 0.000000e+00
1176, 7, 3.706924e+02, 0.000000e+00, 5.111086e-02, 0.000000e+00, 4.352747e+00, 0.000000e+00
1176, 8, 3.706924e+02, 0.000000e+00, 5.111086e-02, 0.000000e+00, 4.352747e+00, 0.000000e+00
1177, 1, 3.706826e+02, 0.000000e+00, 7.276710e-02, 0.000000e+00, 5.193602e+00, 0.000000e+00
1177, 2, 3.706826e+02, 0.000000e+00, 7.276710e-02, 0.000000e+00, 5.193602e+00, 0.000000e+00
1177, 3, 3.706826e+02, 0.000000e+00, 7.276710e-02, 0.000000e+00, 5.193602e+00, 0.000000e+00
1177, 4, 3.706826e+02, 0.000000e+00, 7.276710e-02, 0.000000e+00, 5.193602e+00, 0.000000e+00
1177, 5, 3.706826e+02, 0.000000e+00, 7.276710e-02, 0.000000e+00, 5.193602e+00, 0.000000e+00
1177, 6, 3.706826e+02, 0.000000e+00, 7.276710e-02, 0.000000e+00, 5.193602e+00, 0.000000e+00
1177, 7, 3.706826e+02, 0.000000e+00, 7.276710e-02, 0.000000e+00, 5.193602e+00, 0.000000e+00
1177, 8, 3.706826e+02, 0.000000e+00, 7.276710e-02, 0.000000e+00, 5.193602e+00, 0.000000e+00
1178, 1, 3.706257e+02, 0.000000e+00, 1.772972e-01, 0.000000e+00, 8.106226e+00, 0.000000e+00
1178, 2, 3.706257e+02, 0.000000e+00, 1.772972e-01, 0.000000e+00, 8.106226e+00, 0.000000e+00
1178, 3, 3.706257e+02, 0.000000e+00, 1.772972e-01, 0.000000e+00, 8.106226e+00, 0.000000e+00
1178, 4, 3.706257e+02, 0.000000e+00, 1.772972e-01, 0.000000e+00, 8.106226e+00, 0.000000e+00
1178, 5, 3.706257e+02, 0.000000e+00, 1.772972e-01, 0.000000e+00, 8.106226e+00, 0.000000e+00
1178, 6, 3.706257e+02, 0.000000e+00, 1.772972e-01, 0.000000e+00, 8.106226e+00, 0.000000e+00
1178, 7, 3.706257e+02, 0.000000e+00, 1.772972e-01, 0.000000e+00, 8.106226e+00, 0.000000e+00
1178, 8, 3.706257e+02, 0.000000e+00, 1.772972e-01, 0.000000e+00, 8.106226e+00, 0.000000e+00
1179, 1, 3.706049e+02, 0.000000e+00, 2.159581e-01, 0.000000e+00, 8.946236e+00, 0.000000e+00
1179, 2, 3.706049e+02, 0.000000e+00, 2.159581e-01, 0.000000e+00, 8.946236e+00, 0.000000e+00
1179, 3, 3.706049e+02, 0.000000e+00, 2.159581e-01, 0.000000e+00, 8.946236e+00, 0.000000e+00
1179, 4, 3.706049e+02, 0.000000e+00, 2.159581e-01, 0.000000e+00, 8.946236e+00, 0.000000e+00
1179, 5, 3.706049e+02, 0.000000e+00, 2.159581e-01, 0.000000e+00, 8.946236e+00, 0.000000e+00
1179, 6, 3.706049e+02, 0.000000e+00, 2.159581e-01, 0.000000e+00, 8.946236e+00, 0.000000e+00
1179, 7, 3.706049e+02, 0.000000e+00, 2.159581e-01, 0.000000e+00, 8.946236e+00, 0.000000e+00
1179, 8, 3.706049e+02, 0.000000e+00, 2.159581e-01, 0.000000e+00, 8.946236e+00, 0.000000e+00
1180, 1, 3.705817e+02, 0.000000e+00, 2.629029e-01, 0.000000e+00, 9.870512e+00, 0.000000e+00
1180, 2, 3.705817e+02, 0.000000e+00, 2.629029e-01, 0.000000e+00, 9.870512e+00, 0.000000e+00
1180, 3, 3.705817e+02, 0.000000e+00, 2.629029e-01, 0.000000e+00, 9.870512e+00, 0.000000e+00
1180, 4, 3.705817e+02, 0.000000e+00, 2.629029e-01, 0.000000e+00, 9.870512e+00, 0.000000e+00
1180, 5, 3.705817e+02, 0.000000e+00, 2.629029e-01, 0.000000e+00, 9.870512e+00, 0.000000e+00
1180, 6, 3.705817e+02, 0.000000e+00, 2.629029e-01, 0.000000e+00, 9.870512e+00, 0.000000e+00
1180, 7, 3.705817e+02, 0.000000e+00, 2.629029e-01, 0.000000e+00, 9.870512e+00, 0.000000e+00
1180, 8, 3.705817e+02, 0.000000e+00, 2.629029e-01, 0.000000e+00, 9.870512e+00, 0.000000e+00
1181, 1, 3.705540e+02, 0.000000e+00, 3.144572e-01, 0.000000e+00, 1.079460e+01, 0.000000e+00
1181, 2, 3.705540e+02, 0.000000e+00, 3.144572e-01, 0.000000e+00, 1.079460e+01, 0.000000e+00
1181, 3, 3.705540e+02, 0.000000e+00, 3.144572e-01, 0.000000e+00, 1.079460e+01, 0.000000e+00
1181, 4, 3.705540e+02, 0.000000e+00, 3.144572e-01, 0.000000e+00, 1.079460e+01, 0.000000e+00
1181, 5, 3.705540e+02, 0.000000e+00, 3.144572e-01, 0.000000e+00, 1.079460e+01, 0.000000e+00
1181, 6, 3.705540e+02, 0.000000e+00, 3.144572e-01, 0.000000e+00, 1.079460e+01, 0.000000e+00
1181, 7, 3.705540e+02, 0.000000e+00, 3.144572e-01, 0.000000e+00, 1.079460e+01, 0.000000e+00
1181, 8, 3.705540e+02, 0.000000e+00, 3.144572e-01, 0.000000e+00, 1.079460e+01, 0.000000e+00
1182, 1, 3.705269e+02, 0.000000e+00, 3.653532e-01, 0.000000e+00, 1.163500e+01, 0.000000e+00
1182, 2, 3.705269e+02, 0.000000e+00, 3.653532e-01, 0.000000e+00, 1.163500e+01, 0.000000e+00
1182, 3, 3.705269e+02, 0.000000e+00, 3.653532e-01, 0.000000e+00, 1.163500e+01, 0.000000e+00
1182, 4, 3.705269e+02, 0.000000e+00, 3.653532e-01, 0.000000e+00, 1.163500e+01, 0.000000e+00
1182, 5, 3.705269e+02, 0.000000e+00, 3.653532e-01, 0.000000e+00, 1.163500e+01, 0.000000e+00
1182, 6, 3.705269e+02, 0.000000e+00, 3.653532e-01, 0.000000e+00, 1.163500e+01, 0.000000e+00
1182, 7, 3.705269e+02, 0.000000e+00, 3.653532e-01, 0.000000e+00, 1.163500e+01, 0.000000e+00
1182, 8, 3.705269e+02, 0.000000e+00, 3.653532e-01, 0.000000e+00, 1.163500e+01, 0.000000e+00
1183, 1, 3.704283e+02, 0.000000e+00, 5.710445e-01, 0.000000e+00, 1.454411e+01, 0.000000e+00
1183, 2, 3.704283e+02, 0.000000e+00, 5.710445e-01, 0.000000e+00, 1.454411e+01, 0.000000e+00
1183, 3, 3.704283e+02, 0.000000e+00, 5.710445e-01, 0.000000e+00, 1.454411e+01, 0.000000e+00
1183, 4, 3.704283e+02, 0.000000e+00, 5.710445e-01, 0.000000e+00, 1.454411e+01, 0.000000e+00
1183, 5, 3.704283e+02, 0.000000e+00, 5.710445e-01, 0.000000e+00, 1.454411e+01, 0.000000e+00
1183, 6, 3.704283e+02, 0.000000e+00, 5.710445e-01, 0.000000e+00, 1.454411e+01, 0.000000e+00
1183, 7, 3.704283e+02, 0.000000e+00, 5.710445e-01, 0.000000e+00, 1.454411e+01, 0.000000e+00
1183, 8, 3.704283e+02, 0.000000e+00, 5.710445e-01, 0.000000e+00, 1.454411e+01, 0.000000e+00
1184, 1, 3.703925e+02, 0.000000e+00, 6.365606e-01, 0.000000e+00, 1.535504e+01, 0.000000e+00
1184, 2, 3.703925e+02, 0.000000e+00, 6.365606e-01, 0.000000e+00, 1.535504e+01, 0.000000e+00
1184, 3, 3.703925e+02, 0.000000e+00, 6.365606e-01, 0.000000e+00, 1.535504e+01, 0.000000e+00
1184, 4, 3.703925e+02, 0.000000e+00, 6.365606e-01, 0.000000e+00, 1.535504e+01, 0.000000e+00
1184, 5, 3.703925e+02, 0.000000e+00, 6.365606e-01, 0.000000e+00, 1.535504e+01, 0.000000e+00
1184, 6, 3.703925e+02, 0.000000e+00, 6.365606e-01, 0.000000e+00, 1.535504e+01, 0.000000e+00
1184, 7, 3.703925e+02, 0.000000e+00, 6.365606e-01, 0.000000e+00, 1.535504e+01, 0.000000e+00
1184, 8, 3.703925e+02, 0.000000e+00, 6.365606e-01, 0.000000e+00, 1.535504e+01, 0.000000e+00
1185, 1, 3.703602e+02, 0.000000e+00, 7.105752e-01, 0.000000e+00, 1.622248e+01, 0.000000e+00
1185, 2, 3.703602e+02, 0.000000e+00, 7.105752e-01, 0.000000e+00, 1.622248e+01, 0.000000e+00
1185, 3, 3.703602e+02, 0.000000e+00, 7.105752e-01, 0.000000e+00, 1.622248e+01, 0.000000e+00
1185, 4, 3.703602e+02, 0.000000e+00, 7.105752e-01, 0.000000e+00, 1.622248e+01, 0.000000e+00
1185, 5, 3.703602e+02, 0.000000e+00, 7.105752e-01, 0.000000e+00, 1.622248e+01, 0.000000e+00
1185, 6, 3.703602e+02, 0.000000e+00, 7.105752e-01, 0.000000e+00, 1.622248e+01, 0.000000e+00
1185, 7, 3.703602e+02, 0.000000e+00, 7.105752e-01, 0.000000e+00, 1.622248e+01, 0.000000e+00
1185, 8, 3.703602e+02, 0.000000e+00, 7.105752e-01, 0.000000e+00, 1.622248e+01, 0.000000e+00
1186, 1, 3.703238e+02, 0.000000e+00, 7.886519e-01, 0.000000e+00, 1.708966e+01, 0.000000e+00
1186, 2, 3.703238e+02, 0.000000e+00, 7.886519e-01, 0.000000e+00, 1.708966e+01, 0.000000e+00
1186, 3, 3.703238e+02, 0.000000e+00, 7.886519e-01, 0.000000e+00, 1.708966e+01, 0.000000e+00
1186, 4, 3.703238e+02, 0.000000e+00, 7.886519e-01, 0.000000e+00, 1.708966e+01, 0.000000e+00
1186, 5, 3.703238e+02, 0.000000e+00, 7.886519e-01, 0.000000e+00, 1.708966e+01, 0.000000e+00
1186, 6, 3.703238e+02, 0.000000e+00, 7.886519e-01, 0.000000e+00, 1.708966e+01, 0.000000e+00
1186, 7, 3.703238e+02, 0.000000e+00, 7.886519e-01, 0.000000e+00, 1.708966e+01, 0.000000e+00
1186, 8, 3.703238e+02, 0.000000e+00, 7.886519e-01, 0.000000e+00, 1.708966e+01, 0.000000e+00
1187, 1, 3.702831e+02, 0.000000e+00, 8.649975e-01, 0.000000e+00, 1.789676e+01, 0.000000e+00
1187, 2, 3.702831e+02, 0.000000e+00, 8.649975e-01, 0.000000e+00, 1.789676e+01, 0.000000e+00
1187, 3, 3.702831e+02, 0.000000e+00, 8.649975e-01, 0.000000e+00, 1.789676e+01, 0.000000e+00
1187, 4, 3.702831e+02, 0.000000e+00, 8.649975e-01, 0.000000e+00, 1.789676e+01, 0.000000e+00
1187, 5, 3.702831e+02, 0.000000e+00, 8.649975e-01, 0.000000e+00, 1.789676e+01, 0.000000e+00
1187, 6, 3.702831e+02, 0.000000e+00, 8.649975e-01, 0.000000e+00, 1.789676e+01, 0.000000e+00
1187, 7, 3.702831e+02, 0.000000e+00, 8.649975e-01, 0.000000e+00, 1.789676e+01, 0.000000e+00
1187, 8, 3.702831e+02, 0.000000e+00, 8.649975e-01, 0.000000e+00, 1.789676e+01, 0.000000e+00
1188, 1, 3.701057e+02, 0.000000e+00, 1.215001e+00, 0.000000e+00, 2.120563e+01, 0.000000e+00
1188, 2, 3.701057e+02, 0.000000e+00, 1.215001e+00, 0.000000e+00, 2.120563e+01, 0.000000e+00
1188, 3, 3.701057e+02, 0.000000e+00, 1.215001e+00, 0.000000e+00, 2.120563e+01, 0.000000e+00
1188, 4, 3.701057e+02, 0.000000e+00, 1.215001e+00, 0.000000e+00, 2.120563e+01, 0.000000e+00
1188, 5, 3.701057e+02, 0.000000e+00, 1.215001e+00, 0.000000e+00, 2.120563e+01, 0.000000e+00
1188, 6, 3.701057e+02, 0.000000e+00, 1.215001e+00, 0.000000e+00, 2.120563e+01, 0.000000e+00
1188, 7, 3.701057e+02, 0.000000e+00, 1.215001e+00, 0.000000e+00, 2.120563e+01, 0.000000e+00
1188, 8, 3.701057e+02, 0.000000e+00, 1.215001e+00, 0.000000e+00, 2.120563e+01, 0.000000e+00
1189, 1, 3.700611e+02, 0.000000e+00, 1.313091e+00, 0.000000e+00, 2.204368e+01, 0.000000e+00
1189, 2, 3.700611e+02, 0.000000e+00, 1.313091e+00, 0.000000e+00, 2.204368e+01, 0.000000e+00
1189, 3, 3.700611e+02, 0.000000e+00, 1.313091e+00, 0.000000e+00, 2.204368e+01, 0.000000e+00
1189, 4, 3.700611e+02, 0.000000e+00, 1.313091e+00, 0.000000e+00, 2.204368e+01, 0.000000e+00
1189, 5, 3.700611e+02, 0.000000e+00, 1.313091e+00, 0.000000e+00, 2.204368e+01, 0.000000e+00
1189, 6, 3.700611e+02, 0.000000e+00, 1.313091e+00, 0.000000e+00, 2.204368e+01, 0.000000e+00
1189, 7, 3.700611e+02, 0.000000e+00, 1.313091e+00, 0.000000e+00, 2.204368e+01, 0.000000e+00
1189, 8, 3.700611e+02, 0.000000e+00, 1.313091e+00, 0.000000e+00, 2.204368e+01, 0.000000e+00
1190, 1, 3.700024e+02, 0.000000e+00, 1.425347e+00, 0.000000e+00, 2.296479e+01, 0.000000e+00
1190, 2, 3.700024e+02, 0.000000e+00, 1.425347e+00, 0.000000e+00, 2.296479e+01, 0.000000e+00
1190, 3, 3.700024e+02, 0.000000e+00, 1.425347e+00, 0.000000e+00, 2.296479e+01, 0.000000e+00
1190, 4, 3.700024e+02, 0.000000e+00, 1.425347e+00, 0.000000e+00, 2.296479e+01, 0.000000e+00
1190, 5, 3.700024e+02, 0.000000e+00, 1.425347e+00, 0.000000e+00, 2.296479e+01, 0.000000e+00
1190, 6, 3.700024e+02, 0.000000e+00, 1.425347e+00, 0.000000e+00, 2.296479e+01, 0.000000e+00
1190, 7, 3.700024e+02, 0.000000e+00, 1.425347e+00, 0.000000e+00, 2.296479e+01, 0.000000e+00
1190, 8, 3.700024e+02, 0.000000e+00, 1.425347e+00, 0.000000e+00, 2.296479e+01, 0.000000e+00
1191, 1, 3.699391e+02, 0.000000e+00, 1.542187e+00, 0.000000e+00, 2.388546e+01, 0.000000e+00
1191, 2, 3.699391e+02, 0.000000e+00, 1.542187e+00, 0.000000e+00, 2.388546e+01, 0.000000e+00
1191, 3, 3.699391e+02, 0.000000e+00, 1.542187e+00, 0.000000e+00, 2.388546e+01, 0.000000e+00
1191, 4, 3.699391e+02, 0.000000e+00, 1.542187e+00, 0.000000e+00, 2.388546e+01, 0.000000e+00
1191, 5, 3.699391e+02, 0.000000e+00, 1.542187e+00, 0.000000e+00, 2.388546e+01, 0.000000e+00
1191, 6, 3.699391e+02, 0.000000e+00, 1.542187e+00, 0.000000e+00, 2.388546e+01, 0.000000e+00
1191, 7, 3.699391e+02, 0.000000e+00, 1.542187e+00, 0.000000e+00, 2.388546e+01, 0.000000e+00
1191, 8, 3.699391e+02, 0.000000e+00, 1.542187e+00, 0.000000e+00, 2.388546e+01, 0.000000e+00
1192, 1, 3.698884e+02, 0.000000e+00, 1.652423e+00, 0.000000e+00, 2.472271e+01, 0.000000e+00
1192, 2, 3.698884e+02, 0.000000e+00, 1.652423e+00, 0.000000e+00, 2.472271e+01, 0.000000e+00
1192, 3, 3.698884e+02, 0.000000e+00, 1.652423e+00, 0.000000e+00, 2.472271e+01, 0.000000e+00
1192, 4, 3.698884e+02, 0.000000e+00, 1.652423e+00, 0.000000e+00, 2.472271e+01, 0.000000e+00
1192, 5, 3.698884e+02, 0.000000e+00, 1.652423e+00, 0.000000e+00, 2.472271e+01, 0.000000e+00
1192, 6, 3.698884e+02, 0.000000e+00, 1.652423e+00, 0.000000e+00, 2.472271e+01, 0.000000e+00
1192, 7, 3.698884e+02, 0.000000e+00, 1.652423e+00, 0.000000e+00, 2.472271e+01, 0.000000e+00
1192, 8, 3.698884e+02, 0.000000e+00, 1.652423e+00, 0.000000e+00, 2.472271e+01, 0.000000e+00
1193, 1, 3.696802e+02, 0.000000e+00, 2.062958e+00, 0.000000e+00, 2.761584e+01, 0.000000e+00
1193, 2, 3.696802e+02, 0.000000e+00, 2.062958e+00, 0.000000e+00, 2.761584e+01, 0.000000e+00
1193, 3, 3.696802e+02, 0.000000e+00, 2.062958e+00, 0.000000e+00, 2.761584e+01, 0.000000e+00
1193, 4, 3.696802e+02, 0.000000e+00, 2.062958e+00, 0.000000e+00, 2.761584e+01, 0.000000e+00
1193, 5, 3.696802e+02, 0.000000e+00, 2.062958e+00, 0.000000e+00, 2.761584e+01, 0.000000e+00
1193, 6, 3.696802e+02, 0.000000e+00, 2.062958e+00, 0.000000e+00, 2.761584e+01, 0.000000e+00
1193, 7, 3.696802e+02, 0.000000e+00, 2.062958e+00, 0.000000e+00, 2.761584e+01, 0.000000e+00
1193, 8, 3.696802e+02, 0.000000e+00, 2.062958e+00, 0.000000e+00, 2.761584e+01, 0.000000e+00
1194, 1, 3.696185e+02, 0.000000e+00, 2.190111e+00, 0.000000e+00, 2.845181e+01, 0.000000e+00
1194, 2, 3.696185e+02, 0.000000e+00, 2.190111e+00, 0.000000e+00, 2.845181e+01, 0.000000e+00
1194, 3, 3.696185e+02, 0.000000e+00, 2.190111e+00, 0.000000e+00, 2.845181e+01, 0.000000e+00
1194, 4, 3.696185e+02, 0.000000e+00, 2.190111e+00, 0.000000e+00, 2.845181e+01, 0.000000e+00
1194, 5, 3.696185e+02, 0.000000e+00, 2.190111e+00, 0.000000e+00, 2.845181e+01, 0.000000e+00
1194, 6, 3.696185e+02, 0.000000e+00, 2.190111e+00, 0.000000e+00, 2.845181e+01, 0.000000e+00
1194, 7, 3.696185e+02, 0.000000e+00, 2.190111e+00, 0.000000e+00, 2.845181e+01, 0.000000e+00
1194, 8, 3.696185e+02, 0.000000e+00, 2.190111e+00, 0.000000e+00, 2.845181e+01, 0.000000e+00
1195, 1, 3.695457e+02, 0.000000e+00, 2.334334e+00, 0.000000e+00, 2.937078e+01, 0.000000e+00
1195, 2, 3.695457e+02, 0.000000e+00, 2.334334e+00, 0.000000e+00, 2.937078e+01, 0.000000e+00
1195, 3, 3.695457e+02, 0.000000e+00, 2.334334e+00, 0.000000e+00, 2.937078e+01, 0.000000e+00
1195, 4, 3.695457e+02, 0.000000e+00, 2.334334e+00, 0.000000e+00, 2.937078e+01, 0.000000e+00
1195, 5, 3.695457e+02, 0.000000e+00, 2.334334e+00, 0.000000e+00, 2.937078e+01, 0.000000e+00
1195, 6, 3.695457e+02, 0.000000e+00, 2.334334e+00, 0.000000e+00, 2.937078e+01, 0.000000e+00
1195, 7, 3.695457e+02, 0.000000e+00, 2.334334e+00, 0.000000e+00, 2.937078e+01, 0.000000e+00
1195, 8, 3.695457e+02, 0.000000e+00, 2.334334e+00, 0.000000e+00, 2.937078e+01, 0.000000e+00
1196, 1, 3.694742e+02, 0.000000e+00, 2.483164e+00, 0.000000e+00, 3.028969e+01, 0.000000e+00
1196, 2, 3.694742e+02, 0.000000e+00, 2.483164e+00, 0.000000e+00, 3.028969e+01, 0.000000e+00
1196, 3, 3.694742e+02, 0.000000e+00, 2.483164e+00, 0.000000e+00, 3.028969e+01, 0.000000e+00
1196, 4, 3.694742e+02, 0.000000e+00, 2.483164e+00, 0.000000e+00, 3.028969e+01, 0.000000e+00
1196, 5, 3.694742e+02, 0.000000e+00, 2.483164e+00, 0.000000e+00, 3.028969e+01, 0.000000e+00
1196, 6, 3.694742e+02, 0.000000e+00, 2.483164e+00, 0.000000e+00, 3.028969e+01, 0.000000e+00
1196, 7, 3.694742e+02, 0.000000e+00, 2.483164e+00, 0.000000e+00, 3.028969e+01, 0.000000e+00
1196, 8, 3.694742e+02, 0.000000e+00, 2.483164e+00, 0.000000e+00, 3.028969e+01, 0.000000e+00
1197, 1, 3.694063e+02, 0.000000e+00, 2.622430e+00, 0.000000e+00, 3.112462e+01, 0.000000e+00
1197, 2, 3.694063e+02, 0.000000e+00, 2.622430e+00, 0.000000e+00, 3.112462e+01, 0.000000e+00
1197, 3, 3.694063e+02, 0.000000e+00, 2.622430e+00, 0.000000e+00, 3.112462e+01, 0.000000e+00
1197, 4, 3.694063e+02, 0.000000e+00, 2.622430e+00, 0.000000e+00, 3.112462e+01, 0.000000e+00
1197, 5, 3.694063e+02, 0.000000e+00, 2.622430e+00, 0.000000e+00, 3.112462e+01, 0.000000e+00
1197, 6, 3.694063e+02, 0.000000e+00, 2.622430e+00, 0.000000e+00, 3.112462e+01, 0.000000e+00
1197, 7, 3.694063e+02, 0.000000e+00, 2.622430e+00, 0.000000e+00, 3.112462e+01, 0.000000e+00
1197, 8, 3.694063e+02, 0.000000e+00, 2.622430e+00, 0.000000e+00, 3.112462e+01, 0.000000e+00
1198, 1, 3.691423e+02, 0.000000e+00, 3.148241e+00, 0.000000e+00, 3.409031e+01, 0.000000e+00
1198, 2, 3.691423e+02, 0.000000e+00, 3.148241e+00, 0.000000e+00, 3.409031e+01, 0.000000e+00
1198, 3, 3.691423e+02, 0.000000e+00, 3.148241e+00, 0.000000e+00, 3.409031e+01, 0.000000e+00
1198, 4, 3.691423e+02, 0.000000e+00, 3.148241e+00, 0.000000e+00, 3.409031e+01, 0.000000e+00
1198, 5, 3.691423e+02, 0.000000e+00, 3.148241e+00, 0.000000e+00, 3.409031e+01, 0.000000e+00
1198, 6, 3.691423e+02, 0.000000e+00, 3.148241e+00, 0.000000e+00, 3.409031e+01, 0.000000e+00
1198, 7, 3.691423e+02, 0.000000e+00, 3.148241e+00, 0.000000e+00, 3.409031e+01, 0.000000e+00
1198, 8, 3.691423e+02, 0.000000e+00, 3.148241e+00, 0.000000e+00, 3.409031e+01, 0.000000e+00
1199, 1, 3.690592e+02, 0.000000e+00, 3.320623e+00, 0.000000e+00, 3.500723e+01, 0.000000e+00
1199, 2, 3.690592e+02, 0.000000e+00, 3.320623e+00, 0.000000e+00, 3.500723e+01, 0.000000e+00
1199, 3, 3.690592e+02, 0.000000e+00, 3.320623e+00, 0.000000e+00, 3.500723e+01, 0.000000e+00
1199, 4, 3.690592e+02, 0.000000e+00, 3.320623e+00, 0.000000e+00, 3.500723e+01, 0.000000e+00
1199, 5, 3.690592e+02, 0.000000e+00, 3.320623e+00, 0.000000e+00, 3.500723e+01, 0.000000e+00
1199, 6, 3.690592e+02, 0.000000e+00, 3.320623e+00, 0.000000e+00, 3.500723e+01, 0.000000e+00
1199, 7, 3.690592e+02, 0.000000e+00, 3.320623e+00, 0.000000e+00, 3.500723e+01, 0.000000e+00
1199, 8, 3.690592e+02, 0.000000e+00, 3.320623e+00, 0.000000e+00, 3.500723e+01, 0.000000e+00
1200, 1, 3.689715e+02, 0.000000e+00, 3.497551e+00, 0.000000e+00, 3.592349e+01, 0.000000e+00
1200, 2, 3.689715e+02, 0.000000e+00, 3.497551e+00, 0.000000e+00, 3.592349e+01, 0.000000e+00
1200, 3, 3.689715e+02, 0.000000e+00, 3.497551e+00, 0.000000e+00, 3.592349e+01, 0.000000e+00
1200, 4, 3.689715e+02, 0.000000e+00, 3.497551e+00, 0.000000e+00, 3.592349e+01, 0.000000e+00
1200, 5, 3.689715e+02, 0.000000e+00, 3.497551e+00, 0.000000e+00, 3.592349e+01, 0.000000e+00
1200, 6, 3.689715e+02, 0.000000e+00, 3.497551e+00, 0.000000e+00, 3.592349e+01, 0.000000e+00
1200, 7, 3.689715e+02, 0.000000e+00, 3.497551e+00, 0.000000e+00, 3.592349e+01, 0.000000e+00
1200, 8, 3.689715e+02, 0.000000e+00, 3.497551e+00, 0.000000e+00, 3.592349e+01, 0.000000e+00
1201, 1, 3.688793e+02, 0.000000e+00, 3.679027e+00, 0.000000e+00, 3.683907e+01, 0.000000e+00
1201, 2, 3.688793e+02, 0.000000e+00, 3.679027e+00, 0.000000e+00, 3.683907e+01, 0.000000e+00
1201, 3, 3.688793e+02, 0.000000e+00, 3.679027e+00, 0.000000e+00, 3.683907e+01, 0.000000e+00
1201, 4, 3.688793e+02, 0.000000e+00, 3.679027e+00, 0.000000e+00, 3.683907e+01, 0.000000e+00
1201, 5, 3.688793e+02, 0.000000e+00, 3.679027e+00, 0.000000e+00, 3.683907e+01, 0.000000e+00
1201, 6, 3.688793e+02, 0.000000e+00, 3.679027e+00, 0.000000e+00, 3.683907e+01, 0.000000e+00
1201, 7, 3.688793e+02, 0.000000e+00, 3.679027e+00, 0.000000e+00, 3.683907e+01, 0.000000e+00
1201, 8, 3.688793e+02, 0.000000e+00, 3.679027e+00, 0.000000e+00, 3.683907e+01, 0.000000e+00
1202, 1, 3.687884e+02, 0.000000e+00, 3.865105e+00, 0.000000e+00, 3.775455e+01, 0.000000e+00
1202, 2, 3.687884e+02, 0.000000e+00, 3.865105e+00, 0.000000e+00, 3.775455e+01, 0.000000e+00
1202, 3, 3.687884e+02, 0.000000e+00, 3.865105e+00, 0.000000e+00, 3.775455e+01, 0.000000e+00
1202, 4, 3.687884e+02, 0.000000e+00, 3.865105e+00, 0.000000e+00, 3.775455e+01, 0.000000e+00
1202, 5, 3.687884e+02, 0.000000e+00, 3.865105e+00, 0.000000e+00, 3.775455e+01, 0.000000e+00
1202, 6, 3.687884e+02, 0.000000e+00, 3.865105e+00, 0.000000e+00, 3.775455e+01, 0.000000e+00
1202, 7, 3.687884e+02, 0.000000e+00, 3.865105e+00, 0.000000e+00, 3.775455e+01, 0.000000e+00
1202, 8, 3.687884e+02, 0.000000e+00, 3.865105e+00, 0.000000e+00, 3.775455e+01, 0.000000e+00
1203, 1, 3.684299e+02, 0.000000e+00, 4.586560e+00, 0.000000e+00, 4.110749e+01, 0.000000e+00
1203, 2, 3.684299e+02, 0.000000e+00, 4.586560e+00, 0.000000e+00, 4.110749e+01, 0.000000e+00
1203, 3, 3.684299e+02, 0.000000e+00, 4.586560e+00, 0.000000e+00, 4.110749e+01, 0.000000e+00
1203, 4, 3.684299e+02, 0.000000e+00, 4.586560e+00, 0.000000e+00, 4.110749e+01, 0.000000e+00
1203, 5, 3.684299e+02, 0.000000e+00, 4.586560e+00, 0.000000e+00, 4.110749e+01, 0.000000e+00
1203, 6, 3.684299e+02, 0.000000e+00, 4.586560e+00, 0.000000e+00, 4.110749e+01, 0.000000e+00
1203, 7, 3.684299e+02, 0.000000e+00, 4.586560e+00, 0.000000e+00, 4.110749e+01, 0.000000e+00
1203, 8, 3.684299e+02, 0.000000e+00, 4.586560e+00, 0.000000e+00, 4.110749e+01, 0.000000e+00
1204, 1, 3.683368e+02, 0.000000e+00, 4.774878e+00, 0.000000e+00, 4.193761e+01, 0.000000e+00
1204, 2, 3.683368e+02, 0.000000e+00, 4.774878e+00, 0.000000e+00, 4.193761e+01, 0.000000e+00
1204, 3, 3.683368e+02, 0.000000e+00, 4.774878e+00, 0.000000e+00, 4.193761e+01, 0.000000e+00
1204, 4, 3.683368e+02, 0.000000e+00, 4.774878e+00, 0.000000e+00, 4.193761e+01, 0.000000e+00
1204, 5, 3.683368e+02, 0.000000e+00, 4.774878e+00, 0.000000e+00, 4.193761e+01, 0.000000e+00
1204, 6, 3.683368e+02, 0.000000e+00, 4.774878e+00, 0.000000e+00, 4.193761e+01, 0.000000e+00
1204, 7, 3.683368e+02, 0.000000e+00, 4.774878e+00, 0.000000e+00, 4.193761e+01, 0.000000e+00
1204, 8, 3.683368e+02, 0.000000e+00, 4.774878e+00, 0.000000e+00, 4.193761e+01, 0.000000e+00
1205, 1, 3.682324e+02, 0.000000e+00, 4.986377e+00, 0.000000e+00, 4.285027e+01, 0.000000e+00
1205, 2, 3.682324e+02, 0.000000e+00, 4.986377e+00, 0.000000e+00, 4.285027e+01, 0.000000e+00
1205, 3, 3.682324e+02, 0.000000e+00, 4.986377e+00, 0.000000e+00, 4.285027e+01, 0.000000e+00
1205, 4, 3.682324e+02, 0.000000e+00, 4.986377e+00, 0.000000e+00, 4.285027e+01, 0.000000e+00
1205, 5, 3.682324e+02, 0.000000e+00, 4.986377e+00, 0.000000e+00, 4.285027e+01, 0.000000e+00
1205, 6, 3.682324e+02, 0.000000e+00, 4.986377e+00, 0.000000e+00, 4.285027e+01, 0.000000e+00
1205, 7, 3.682324e+02, 0.000000e+00, 4.986377e+00, 0.000000e+00, 4.285027e+01, 0.000000e+00
1205, 8, 3.682324e+02, 0.000000e+00, 4.986377e+00, 0.000000e+00, 4.285027e+01, 0.000000e+00
1206, 1, 3.681235e+02, 0.000000e+00, 5.202396e+00, 0.000000e+00, 4.376213e+01, 0.000000e+00
1206, 2, 3.681235e+02, 0.000000e+00, 5.202396e+00, 0.000000e+00, 4.376213e+01, 0.000000e+00
1206, 3, 3.681235e+02, 0.000000e+00, 5.202396e+00, 0.000000e+00, 4.376213e+01, 0.000000e+00
1206, 4, 3.681235e+02, 0.000000e+00, 5.202396e+00, 0.000000e+00, 4.376213e+01, 0.000000e+00
1206, 5, 3.681235e+02, 0.000000e+00, 5.202396e+00, 0.000000e+00, 4.376213e+01, 0.000000e+00
1206, 6, 3.681235e+02, 0.000000e+00, 5.202396e+00, 0.000000e+00, 4.376213e+01, 0.000000e+00
1206, 7, 3.681235e+02, 0.000000e+00, 5.202396e+00, 0.000000e+00, 4.376213e+01, 0.000000e+00
1206, 8, 3.681235e+02, 0.000000e+00, 5.202396e+00, 0.000000e+00, 4.376213e+01, 0.000000e+00
1207, 1, 3.680243e+02, 0.000000e+00, 5.402747e+00, 0.000000e+00, 4.459083e+01, 0.000000e+00
1207, 2, 3.680243e+02, 0.000000e+00, 5.402747e+00, 0.000000e+00, 4.459083e+01, 0.000000e+00
1207, 3, 3.680243e+02, 0.000000e+00, 5.402747e+00, 0.000000e+00, 4.459083e+01, 0.000000e+00
1207, 4, 3.680243e+02, 0.000000e+00, 5.402747e+00, 0.000000e+00, 4.459083e+01, 0.000000e+00
1207, 5, 3.680243e+02, 0.000000e+00, 5.402747e+00, 0.000000e+00, 4.459083e+01, 0.000000e+00
1207, 6, 3.680243e+02, 0.000000e+00, 5.402747e+00, 0.000000e+00, 4.459083e+01, 0.000000e+00
1207, 7, 3.680243e+02, 0.000000e+00, 5.402747e+00, 0.000000e+00, 4.459083e+01, 0.000000e+00
1207, 8, 3.680243e+02, 0.000000e+00, 5.402747e+00, 0.000000e+00, 4.459083e+01, 0.000000e+00
1208, 1, 3.676623e+02, 0.000000e+00, 6.121798e+00, 0.000000e+00, 4.744211e+01, 0.000000e+00
1208, 2, 3.676623e+02, 0.000000e+00, 6.121798e+00, 0.000000e+00, 4.744211e+01, 0.000000e+00
1208, 3, 3.676623e+02, 0.000000e+00, 6.121798e+00, 0.000000e+00, 4.744211e+01, 0.000000e+00
1208, 4, 3.676623e+02, 0.000000e+00, 6.121798e+00, 0.000000e+00, 4.744211e+01, 0.000000e+00
1208, 5, 3.676623e+02, 0.000000e+00, 6.121798e+00, 0.000000e+00, 4.744211e+01, 0.000000e+00
1208, 6, 3.676623e+02, 0.000000e+00, 6.121798e+00, 0.000000e+00, 4.744211e+01, 0.000000e+00
1208, 7, 3.676623e+02, 0.000000e+00, 6.121798e+00, 0.000000e+00, 4.744211e+01, 0.000000e+00
1208, 8, 3.676623e+02, 0.000000e+00, 6.121798e+00, 0.000000e+00, 4.744211e+01, 0.000000e+00
1209, 1, 3.675582e+02, 0.000000e+00, 6.338894e+00, 0.000000e+00, 4.826917e+01, 0.000000e+00
1209, 2, 3.675582e+02, 0.000000e+00, 6.338894e+00, 0.000000e+00, 4.826917e+01, 0.000000e+00
1209, 3, 3.675582e+02, 0.000000e+00, 6.338894e+00, 0.000000e+00, 4.826917e+01, 0.000000e+00
1209, 4, 3.675582e+02, 0.000000e+00, 6.338894e+00, 0.000000e+00, 4.826917e+01, 0.000000e+00
1209, 5, 3.675582e+02, 0.000000e+00, 6.338894e+00, 0.000000e+00, 4.826917e+01, 0.000000e+00
1209, 6, 3.675582e+02, 0.000000e+00, 6.338894e+00, 0.000000e+00, 4.826917e+01, 0.000000e+00
1209, 7, 3.675582e+02, 0.000000e+00, 6.338894e+00, 0.000000e+00, 4.826917e+01, 0.000000e+00
1209, 8, 3.675582e+02, 0.000000e+00, 6.338894e+00, 0.000000e+00, 4.826917e+01, 0.000000e+00
1210, 1, 3.674401e+02, 0.000000e+00, 6.582005e+00, 0.000000e+00, 4.917817e+01, 0.000000e+00
1210, 2, 3.674401e+02, 0.000000e+00, 6.582005e+00, 0.000000e+00, 4.917817e+01, 0.000000e+00
1210, 3, 3.674401e+02, 0.000000e+00, 6.582005e+00, 0.000000e+00, 4.917817e+01, 0.000000e+00
1210, 4, 3.674401e+02, 0.000000e+00, 6.582005e+00, 0.000000e+00, 4.917817e+01, 0.000000e+00
1210, 5, 3.674401e+02, 0.000000e+00, 6.582005e+00, 0.000000e+00, 4.917817e+01, 0.000000e+00
1210, 6, 3.674401e+02, 0.000000e+00, 6.582005e+00, 0.000000e+00, 4.917817e+01, 0.000000e+00
1210, 7, 3.674401e+02, 0.000000e+00, 6.582005e+00, 0.000000e+00, 4.917817e+01, 0.000000e+00
1210, 8, 3.674401e+02, 0.000000e+00, 6.582005e+00, 0.000000e+00, 4.917817e+01, 0.000000e+00
1211, 1, 3.673174e+02, 0.000000e+00, 6.829608e+00, 0.000000e+00, 5.008627e+01, 0.000000e+00
1211, 2, 3.673174e+02, 0.000000e+00, 6.829608e+00, 0.000000e+00, 5.008627e+01, 0.000000e+00
1211, 3, 3.673174e+02, 0.000000e+00, 6.829608e+00, 0.000000e+00, 5.008627e+01, 0.000000e+00
1211, 4, 3.673174e+02, 0.000000e+00, 6.829608e+00, 0.000000e+00, 5.008627e+01, 0.000000e+00
1211, 5, 3.673174e+02, 0.000000e+00, 6.829608e+00, 0.000000e+00, 5.008627e+01, 0.000000e+00
1211, 6, 3.673174e+02, 0.000000e+00, 6.829608e+00, 0.000000e+00, 5.008627e+01, 0.000000e+00
1211, 7, 3.673174e+02, 0.000000e+00, 6.829608e+00, 0.000000e+00, 5.008627e+01, 0.000000e+00
1211, 8, 3.673174e+02, 0.000000e+00, 6.829608e+00, 0.000000e+00, 5.008627e+01, 0.000000e+00
1212, 1, 3.672015e+02, 0.000000e+00, 7.058582e+00, 0.000000e+00, 5.091092e+01, 0.000000e+00
1212, 2, 3.672015e+02, 0.000000e+00, 7.058582e+00, 0.000000e+00, 5.091092e+01, 0.000000e+00
1212, 3, 3.672015e+02, 0.000000e+00, 7.058582e+00, 0.000000e+00, 5.091092e+01, 0.000000e+00
1212, 4, 3.672015e+02, 0.000000e+00, 7.058582e+00, 0.000000e+00, 5.091092e+01, 0.000000e+00
1212, 5, 3.672015e+02, 0.000000e+00, 7.058582e+00, 0.000000e+00, 5.091092e+01, 0.000000e+00
1212, 6, 3.672015e+02, 0.000000e+00, 7.058582e+00, 0.000000e+00, 5.091092e+01, 0.000000e+00
1212, 7, 3.672015e+02, 0.000000e+00, 7.058582e+00, 0.000000e+00, 5.091092e+01, 0.000000e+00
1212, 8, 3.672015e+02, 0.000000e+00, 7.058582e+00, 0.000000e+00, 5.091092e+01, 0.000000e+00
1213, 1, 3.667957e+02, 0.000000e+00, 7.874941e+00, 0.000000e+00, 5.374472e+01, 0.000000e+00
1213, 2, 3.667957e+02, 0.000000e+00, 7.874941e+00, 0.000000e+00, 5.374472e+01, 0.000000e+00
1213, 3, 3.667957e+02, 0.000000e+00, 7.874941e+00, 0.000000e+00, 5.374472e+01, 0.000000e+00
1213, 4, 3.667957e+02, 0.000000e+00, 7.874941e+00, 0.000000e+00, 5.374472e+01, 0.000000e+00
1213, 5, 3.667957e+02, 0.000000e+00, 7.874941e+00, 0.000000e+00, 5.374472e+01, 0.000000e+00
1213, 6, 3.667957e+02, 0.000000e+00, 7.874941e+00, 0.000000e+00, 5.374472e+01, 0.000000e+00
1213, 7, 3.667957e+02, 0.000000e+00, 7.874941e+00, 0.000000e+00, 5.374472e+01, 0.000000e+00
1213, 8, 3.667957e+02, 0.000000e+00, 7.874941e+00, 0.000000e+00, 5.374472e+01, 0.000000e+00
1214, 1, 3.666774e+02, 0.000000e+00, 8.112286e+00, 0.000000e+00, 5.453982e+01, 0.000000e+00
1214, 2, 3.666774e+02, 0.000000e+00, 8.112286e+00, 0.000000e+00, 5.453982e+01, 0.000000e+00
1214, 3, 3.666774e+02, 0.000000e+00, 8.112286e+00, 0.000000e+00, 5.453982e+01, 0.000000e+00
1214, 4, 3.666774e+02, 0.000000e+00, 8.112286e+00, 0.000000e+00, 5.453982e+01, 0.000000e+00
1214, 5, 3.666774e+02, 0.000000e+00, 8.112286e+00, 0.000000e+00, 5.453982e+01, 0.000000e+00
1214, 6, 3.666774e+02, 0.000000e+00, 8.112286e+00, 0.000000e+00, 5.453982e+01, 0.000000e+00
1214, 7, 3.666774e+02, 0.000000e+00, 8.112286e+00, 0.000000e+00, 5.453982e+01, 0.000000e+00
1214, 8, 3.666774e+02, 0.000000e+00, 8.112286e+00, 0.000000e+00, 5.453982e+01, 0.000000e+00
1215, 1, 3.665507e+02, 0.000000e+00, 8.369891e+00, 0.000000e+00, 5.538943e+01, 0.000000e+00
1215, 2, 3.665507e+02, 0.000000e+00, 8.369891e+00, 0.000000e+00, 5.538943e+01, 0.000000e+00
1215, 3, 3.665507e+02, 0.000000e+00, 8.369891e+00, 0.000000e+00, 5.538943e+01, 0.000000e+00
1215, 4, 3.665507e+02, 0.000000e+00, 8.369891e+00, 0.000000e+00, 5.538943e+01, 0.000000e+00
1215, 5, 3.665507e+02, 0.000000e+00, 8.369891e+00, 0.000000e+00, 5.538943e+01, 0.000000e+00
1215, 6, 3.665507e+02, 0.000000e+00, 8.369891e+00, 0.000000e+00, 5.538943e+01, 0.000000e+00
1215, 7, 3.665507e+02, 0.000000e+00, 8.369891e+00, 0.000000e+00, 5.538943e+01, 0.000000e+00
1215, 8, 3.665507e+02, 0.000000e+00, 8.369891e+00, 0.000000e+00, 5.538943e+01, 0.000000e+00
1216, 1, 3.664201e+02, 0.000000e+00, 8.631430e+00, 0.000000e+00, 5.623815e+01, 0.000000e+00
1216, 2, 3.664201e+02, 0.000000e+00, 8.631430e+00, 0.000000e+00, 5.623815e+01, 0.000000e+00
1216, 3, 3.664201e+02, 0.000000e+00, 8.631430e+00, 0.000000e+00, 5.623815e+01, 0.000000e+00
1216, 4, 3.664201e+02, 0.000000e+00, 8.631430e+00, 0.000000e+00, 5.623815e+01, 0.000000e+00
1216, 5, 3.664201e+02, 0.000000e+00, 8.631430e+00, 0.000000e+00, 5.623815e+01, 0.000000e+00
1216, 6, 3.664201e+02, 0.000000e+00, 8.631430e+00, 0.000000e+00, 5.623815e+01, 0.000000e+00
1216, 7, 3.664201e+02, 0.000000e+00, 8.631430e+00, 0.000000e+00, 5.623815e+01, 0.000000e+00
1216, 8, 3.664201e+02, 0.000000e+00, 8.631430e+00, 0.000000e+00, 5.623815e+01, 0.000000e+00
1217, 1, 3.662967e+02, 0.000000e+00, 8.879709e+00, 0.000000e+00, 5.703164e+01, 0.000000e+00
1217, 2, 3.662967e+02, 0.000000e+00, 8.879709e+00, 0.000000e+00, 5.703164e+01, 0.000000e+00
1217, 3, 3.662967e+02, 0.000000e+00, 8.879709e+00, 0.000000e+00, 5.703164e+01, 0.000000e+00
1217, 4, 3.662967e+02, 0.000000e+00, 8.879709e+00, 0.000000e+00, 5.703164e+01, 0.000000e+00
1217, 5, 3.662967e+02, 0.000000e+00, 8.879709e+00, 0.000000e+00, 5.703164e+01, 0.000000e+00
1217, 6, 3.662967e+02, 0.000000e+00, 8.879709e+00, 0.000000e+00, 5.703164e+01, 0.000000e+00
1217, 7, 3.662967e+02, 0.000000e+00, 8.879709e+00, 0.000000e+00, 5.703164e+01, 0.000000e+00
1217, 8, 3.662967e+02, 0.000000e+00, 8.879709e+00, 0.000000e+00, 5.703164e+01, 0.000000e+00
1218, 1, 3.657624e+02, 0.000000e+00, 9.961417e+00, 0.000000e+00, 6.036151e+01, 0.000000e+00
1218, 2, 3.657624e+02, 0.000000e+00, 9.961417e+00, 0.000000e+00, 6.036151e+01, 0.000000e+00
1218, 3, 3.657624e+02, 0.000000e+00, 9.961417e+00, 0.000000e+00, 6.036151e+01, 0.000000e+00
1218, 4, 3.657624e+02, 0.000000e+00, 9.961417e+00, 0.000000e+00, 6.036151e+01, 0.000000e+00
1218, 5, 3.657624e+02, 0.000000e+00, 9.961417e+00, 0.000000e+00, 6.036151e+01, 0.000000e+00
1218, 6, 3.657624e+02, 0.000000e+00, 9.961417e+00, 0.000000e+00, 6.036151e+01, 0.000000e+00
1218, 7, 3.657624e+02, 0.000000e+00, 9.961417e+00, 0.000000e+00, 6.036151e+01, 0.000000e+00
1218, 8, 3.657624e+02, 0.000000e+00, 9.961417e+00, 0.000000e+00, 6.036151e+01, 0.000000e+00
1219, 1, 3.656058e+02, 0.000000e+00, 1.027869e+01, 0.000000e+00, 6.130212e+01, 0.000000e+00
1219, 2, 3.656058e+02, 0.000000e+00, 1.027869e+01, 0.000000e+00, 6.130212e+01, 0.000000e+00
1219, 3, 3.656058e+02, 0.000000e+00, 1.027869e+01, 0.000000e+00, 6.130212e+01, 0.000000e+00
1219, 4, 3.656058e+02, 0.000000e+00, 1.027869e+01, 0.000000e+00, 6.130212e+01, 0.000000e+00
1219, 5, 3.656058e+02, 0.000000e+00, 1.027869e+01, 0.000000e+00, 6.130212e+01, 0.000000e+00
1219, 6, 3.656058e+02, 0.000000e+00, 1.027869e+01, 0.000000e+00, 6.130212e+01, 0.000000e+00
1219, 7, 3.656058e+02, 0.000000e+00, 1.027869e+01, 0.000000e+00, 6.130212e+01, 0.000000e+00
1219, 8, 3.656058e+02, 0.000000e+00, 1.027869e+01, 0.000000e+00, 6.130212e+01, 0.000000e+00
1220, 1, 3.654583e+02, 0.000000e+00, 1.058689e+01, 0.000000e+00, 6.220183e+01, 0.000000e+00
1220, 2, 3.654583e+02, 0.000000e+00, 1.058689e+01, 0.000000e+00, 6.220183e+01, 0.000000e+00
1220, 3, 3.654583e+02, 0.000000e+00, 1.058689e+01, 0.000000e+00, 6.220183e+01, 0.000000e+00
1220, 4, 3.654583e+02, 0.000000e+00, 1.058689e+01, 0.000000e+00, 6.220183e+01, 0.000000e+00
1220, 5, 3.654583e+02, 0.000000e+00, 1.058689e+01, 0.000000e+00, 6.220183e+01, 0.000000e+00
1220, 6, 3.654583e+02, 0.000000e+00, 1.058689e+01, 0.000000e+00, 6.220183e+01, 0.000000e+00
1220, 7, 3.654583e+02, 0.000000e+00, 1.058689e+01, 0.000000e+00, 6.220183e+01, 0.000000e+00
1220, 8, 3.654583e+02, 0.000000e+00, 1.058689e+01, 0.000000e+00, 6.220183e+01, 0.000000e+00
1221, 1, 3.653063e+02, 0.000000e+00, 1.089952e+01, 0.000000e+00, 6.310042e+01, 0.000000e+00
1221, 2, 3.653063e+02, 0.000000e+00, 1.089952e+01, 0.000000e+00, 6.310042e+01, 0.000000e+00
1221, 3, 3.653063e+02, 0.000000e+00, 1.089952e+01, 0.000000e+00, 6.310042e+01, 0.000000e+00
1221, 4, 3.653063e+02, 0.000000e+00, 1.089952e+01, 0.000000e+00, 6.310042e+01, 0.000000e+00
1221, 5, 3.653063e+02, 0.000000e+00, 1.089952e+01, 0.000000e+00, 6.310042e+01, 0.000000e+00
1221, 6, 3.653063e+02, 0.000000e+00, 1.089952e+01, 0.000000e+00, 6.310042e+01, 0.000000e+00
1221, 7, 3.653063e+02, 0.000000e+00, 1.089952e+01, 0.000000e+00, 6.310042e+01, 0.000000e+00
1221, 8, 3.653063e+02, 0.000000e+00, 1.089952e+01, 0.000000e+00, 6.310042e+01, 0.000000e+00
1222, 1, 3.651414e+02, 0.000000e+00, 1.123104e+01, 0.000000e+00, 6.403840e+01, 0.000000e+00
1222, 2, 3.651414e+02, 0.000000e+00, 1.123104e+01, 0.000000e+00, 6.403840e+01, 0.000000e+00
1222, 3, 3.651414e+02, 0.000000e+00, 1.123104e+01, 0.000000e+00, 6.403840e+01, 0.000000e+00
1222, 4, 3.651414e+02, 0.000000e+00, 1.123104e+01, 0.000000e+00, 6.403840e+01, 0.000000e+00
1222, 5, 3.651414e+02, 0.000000e+00, 1.123104e+01, 0.000000e+00, 6.403840e+01, 0.000000e+00
1222, 6, 3.651414e+02, 0.000000e+00, 1.123104e+01, 0.000000e+00, 6.403840e+01, 0.000000e+00
1222, 7, 3.651414e+02, 0.000000e+00, 1.123104e+01, 0.000000e+00, 6.403840e+01, 0.000000e+00
1222, 8, 3.651414e+02, 0.000000e+00, 1.123104e+01, 0.000000e+00, 6.403840e+01, 0.000000e+00
1223, 1, 3.645989e+02, 0.000000e+00, 1.233877e+01, 0.000000e+00, 6.707237e+01, 0.000000e+00
1223, 2, 3.645989e+02, 0.000000e+00, 1.233877e+01, 0.000000e+00, 6.707237e+01, 0.000000e+00
1223, 3, 3.645989e+02, 0.000000e+00, 1.233877e+01, 0.000000e+00, 6.707237e+01, 0.000000e+00
1223, 4, 3.645989e+02, 0.000000e+00, 1.233877e+01, 0.000000e+00, 6.707237e+01, 0.000000e+00
1223, 5, 3.645989e+02, 0.000000e+00, 1.233877e+01, 0.000000e+00, 6.707237e+01, 0.000000e+00
1223, 6, 3.645989e+02, 0.000000e+00, 1.233877e+01, 0.000000e+00, 6.707237e+01, 0.000000e+00
1223, 7, 3.645989e+02, 0.000000e+00, 1.233877e+01, 0.000000e+00, 6.707237e+01, 0.000000e+00
1223, 8, 3.645989e+02, 0.000000e+00, 1.233877e+01, 0.000000e+00, 6.707237e+01, 0.000000e+00
1224, 1, 3.644252e+02, 0.000000e+00, 1.269103e+01, 0.000000e+00, 6.800685e+01, 0.000000e+00
1224, 2, 3.644252e+02, 0.000000e+00, 1.269103e+01, 0.000000e+00, 6.800685e+01, 0.000000e+00
1224, 3, 3.644252e+02, 0.000000e+00, 1.269103e+01, 0.000000e+00, 6.800685e+01, 0.000000e+00
1224, 4, 3.644252e+02, 0.000000e+00, 1.269103e+01, 0.000000e+00, 6.800685e+01, 0.000000e+00
1224, 5, 3.644252e+02, 0.000000e+00, 1.269103e+01, 0.000000e+00, 6.800685e+01, 0.000000e+00
1224, 6, 3.644252e+02, 0.000000e+00, 1.269103e+01, 0.000000e+00, 6.800685e+01, 0.000000e+00
1224, 7, 3.644252e+02, 0.000000e+00, 1.269103e+01, 0.000000e+00, 6.800685e+01, 0.000000e+00
1224, 8, 3.644252e+02, 0.000000e+00, 1.269103e+01, 0.000000e+00, 6.800685e+01, 0.000000e+00
1225, 1, 3.642563e+02, 0.000000e+00, 1.303251e+01, 0.000000e+00, 6.889975e+01, 0.000000e+00
1225, 2, 3.642563e+02, 0.000000e+00, 1.303251e+01, 0.000000e+00, 6.889975e+01, 0.000000e+00
1225, 3, 3.642563e+02, 0.000000e+00, 1.303251e+01, 0.000000e+00, 6.889975e+01, 0.000000e+00
1225, 4, 3.642563e+02, 0.000000e+00, 1.303251e+01, 0.000000e+00, 6.889975e+01, 0.000000e+00
1225, 5, 3.642563e+02, 0.000000e+00, 1.303251e+01, 0.000000e+00, 6.889975e+01, 0.000000e+00
1225, 6, 3.642563e+02, 0.000000e+00, 1.303251e+01, 0.000000e+00, 6.889975e+01, 0.000000e+00
1225, 7, 3.642563e+02, 0.000000e+00, 1.303251e+01, 0.000000e+00, 6.889975e+01, 0.000000e+00
1225, 8, 3.642563e+02, 0.000000e+00, 1.303251e+01, 0.000000e+00, 6.889975e+01, 0.000000e+00
1226, 1, 3.640887e+02, 0.000000e+00, 1.337858e+01, 0.000000e+00, 6.979248e+01, 0.000000e+00
1226, 2, 3.640887e+02, 0.000000e+00, 1.337858e+01, 0.000000e+00, 6.979248e+01, 0.000000e+00
1226, 3, 3.640887e+02, 0.000000e+00, 1.337858e+01, 0.000000e+00, 6.979248e+01, 0.000000e+00
1226, 4, 3.640887e+02, 0.000000e+00, 1.337858e+01, 0.000000e+00, 6.979248e+01, 0.000000e+00
1226, 5, 3.640887e+02, 0.000000e+00, 1.337858e+01, 0.000000e+00, 6.979248e+01, 0.000000e+00
1226, 6, 3.640887e+02, 0.000000e+00, 1.337858e+01, 0.000000e+00, 6.979248e+01, 0.000000e+00
1226, 7, 3.640887e+02, 0.000000e+00, 1.337858e+01, 0.000000e+00, 6.979248e+01, 0.000000e+00
1226, 8, 3.640887e+02, 0.000000e+00, 1.337858e+01, 0.000000e+00, 6.979248e+01, 0.000000e+00
1227, 1, 3.639068e+02, 0.000000e+00, 1.374497e+01, 0.000000e+00, 7.072404e+01, 0.000000e+00
1227, 2, 3.639068e+02, 0.000000e+00, 1.374497e+01, 0.000000e+00, 7.072404e+01, 0.000000e+00
1227, 3, 3.639068e+02, 0.000000e+00, 1.374497e+01, 0.000000e+00, 7.072404e+01, 0.000000e+00
1227, 4, 3.639068e+02, 0.000000e+00, 1.374497e+01, 0.000000e+00, 7.072404e+01, 0.000000e+00
1227, 5, 3.639068e+02, 0.000000e+00, 1.374497e+01, 0.000000e+00, 7.072404e+01, 0.000000e+00
1227, 6, 3.639068e+02, 0.000000e+00, 1.374497e+01, 0.000000e+00, 7.072404e+01, 0.000000e+00
1227, 7, 3.639068e+02, 0.000000e+00, 1.374497e+01, 0.000000e+00, 7.072404e+01, 0.000000e+00
1227, 8, 3.639068e+02, 0.000000e+00, 1.374497e+01, 0.000000e+00, 7.072404e+01, 0.000000e+00
1228, 1, 3.633858e+02, 0.000000e+00, 1.479556e+01, 0.000000e+00, 7.332460e+01, 0.000000e+00
1228, 2, 3.633858e+02, 0.000000e+00, 1.479556e+01, 0.000000e+00, 7.332460e+01, 0.000000e+00
1228, 3, 3.633858e+02, 0.000000e+00, 1.479556e+01, 0.000000e+00, 7.332460e+01, 0.000000e+00
1228, 4, 3.633858e+02, 0.000000e+00, 1.479556e+01, 0.000000e+00, 7.332460e+01, 0.000000e+00
1228, 5, 3.633858e+02, 0.000000e+00, 1.479556e+01, 0.000000e+00, 7.332460e+01, 0.000000e+00
1228, 6, 3.633858e+02, 0.000000e+00, 1.479556e+01, 0.000000e+00, 7.332460e+01, 0.000000e+00
1228, 7, 3.633858e+02, 0.000000e+00, 1.479556e+01, 0.000000e+00, 7.332460e+01, 0.000000e+00
1228, 8, 3.633858e+02, 0.000000e+00, 1.479556e+01, 0.000000e+00, 7.332460e+01, 0.000000e+00
1229, 1, 3.632556e+02, 0.000000e+00, 1.506855e+01, 0.000000e+00, 7.398470e+01, 0.000000e+00
1229, 2, 3.632556e+02, 0.000000e+00, 1.506855e+01, 0.000000e+00, 7.398470e+01, 0.000000e+00
1229, 3, 3.632556e+02, 0.000000e+00, 1.506855e+01, 0.000000e+00, 7.398470e+01, 0.000000e+00
1229, 4, 3.632556e+02, 0.000000e+00, 1.506855e+01, 0.000000e+00, 7.398470e+01, 0.000000e+00
1229, 5, 3.632556e+02, 0.000000e+00, 1.506855e+01, 0.000000e+00, 7.398470e+01, 0.000000e+00
1229, 6, 3.632556e+02, 0.000000e+00, 1.506855e+01, 0.000000e+00, 7.398470e+01, 0.000000e+00
1229, 7, 3.632556e+02, 0.000000e+00, 1.506855e+01, 0.000000e+00, 7.398470e+01, 0.000000e+00
1229, 8, 3.632556e+02, 0.000000e+00, 1.506855e+01, 0.000000e+00, 7.398470e+01, 0.000000e+00
1230, 1, 3.630206e+02, 0.000000e+00, 1.555342e+01, 0.000000e+00, 7.514128e+01, 0.000000e+00
1230, 2, 3.630206e+02, 0.000000e+00, 1.555342e+01, 0.000000e+00, 7.514128e+01, 0.000000e+00
1230, 3, 3.630206e+02, 0.000000e+00, 1.555342e+01, 0.000000e+00, 7.514128e+01, 0.000000e+00
1230, 4, 3.630206e+02, 0.000000e+00, 1.555342e+01, 0.000000e+00, 7.514128e+01, 0.000000e+00
1230, 5, 3.630206e+02, 0.000000e+00, 1.555342e+01, 0.000000e+00, 7.514128e+01, 0.000000e+00
1230, 6, 3.630206e+02, 0.000000e+00, 1.555342e+01, 0.000000e+00, 7.514128e+01, 0.000000e+00
1230, 7, 3.630206e+02, 0.000000e+00, 1.555342e+01, 0.000000e+00, 7.514128e+01, 0.000000e+00
1230, 8, 3.630206e+02, 0.000000e+00, 1.555342e+01, 0.000000e+00, 7.514128e+01, 0.000000e+00
1231, 1, 3.627783e+02, 0.000000e+00, 1.604564e+01, 0.000000e+00, 7.629554e+01, 0.000000e+00
1231, 2, 3.627783e+02, 0.000000e+00, 1.604564e+01, 0.000000e+00, 7.629554e+01, 0.000000e+00
1231, 3, 3.627783e+02, 0.000000e+00, 1.604564e+01, 0.000000e+00, 7.629554e+01, 0.000000e+00
1231, 4, 3.627783e+02, 0.000000e+00, 1.604564e+01, 0.000000e+00, 7.629554e+01, 0.000000e+00
1231, 5, 3.627783e+02, 0.000000e+00, 1.604564e+01, 0.000000e+00, 7.629554e+01, 0.000000e+00
1231, 6, 3.627783e+02, 0.000000e+00, 1.604564e+01, 0.000000e+00, 7.629554e+01, 0.000000e+00
1231, 7, 3.627783e+02, 0.000000e+00, 1.604564e+01, 0.000000e+00, 7.629554e+01, 0.000000e+00
1231, 8, 3.627783e+02, 0.000000e+00, 1.604564e+01, 0.000000e+00, 7.629554e+01, 0.000000e+00
1232, 1, 3.625517e+02, 0.000000e+00, 1.650435e+01, 0.000000e+00, 7.735426e+01, 0.000000e+00
1232, 2, 3.625517e+02, 0.000000e+00, 1.650435e+01, 0.000000e+00, 7.735426e+01, 0.000000e+00
1232, 3, 3.625517e+02, 0.000000e+00, 1.650435e+01, 0.000000e+00, 7.735426e+01, 0.000000e+00
1232, 4, 3.625517e+02, 0.000000e+00, 1.650435e+01, 0.000000e+00, 7.735426e+01, 0.000000e+00
1232, 5, 3.625517e+02, 0.000000e+00, 1.650435e+01, 0.000000e+00, 7.735426e+01, 0.000000e+00
1232, 6, 3.625517e+02, 0.000000e+00, 1.650435e+01, 0.000000e+00, 7.735426e+01, 0.000000e+00
1232, 7, 3.625517e+02, 0.000000e+00, 1.650435e+01, 0.000000e+00, 7.735426e+01, 0.000000e+00
1232, 8, 3.625517e+02, 0.000000e+00, 1.650435e+01, 0.000000e+00, 7.735426e+01, 0.000000e+00
1233, 1, 3.618201e+02, 0.000000e+00, 1.800351e+01, 0.000000e+00, 8.070955e+01, 0.000000e+00
1233, 2, 3.618201e+02, 0.000000e+00, 1.800351e+01, 0.000000e+00, 8.070955e+01, 0.000000e+00
1233, 3, 3.618201e+02, 0.000000e+00, 1.800351e+01, 0.000000e+00, 8.070955e+01, 0.000000e+00
1233, 4, 3.618201e+02, 0.000000e+00, 1.800351e+01, 0.000000e+00, 8.070955e+01, 0.000000e+00
1233, 5, 3.618201e+02, 0.000000e+00, 1.800351e+01, 0.000000e+00, 8.070955e+01, 0.000000e+00
1233, 6, 3.618201e+02, 0.000000e+00, 1.800351e+01, 0.000000e+00, 8.070955e+01, 0.000000e+00
1233, 7, 3.618201e+02, 0.000000e+00, 1.800351e+01, 0.000000e+00, 8.070955e+01, 0.000000e+00
1233, 8, 3.618201e+02, 0.000000e+00, 1.800351e+01, 0.000000e+00, 8.070955e+01, 0.000000e+00
1234, 1, 3.616167e+02, 0.000000e+00, 1.842710e+01, 0.000000e+00, 8.163054e+01, 0.000000e+00
1234, 2, 3.616167e+02, 0.000000e+00, 1.842710e+01, 0.000000e+00, 8.163054e+01, 0.000000e+00
1234, 3, 3.616167e+02, 0.000000e+00, 1.842710e+01, 0.000000e+00, 8.163054e+01, 0.000000e+00
1234, 4, 3.616167e+02, 0.000000e+00, 1.842710e+01, 0.000000e+00, 8.163054e+01, 0.000000e+00
1234, 5, 3.616167e+02, 0.000000e+00, 1.842710e+01, 0.000000e+00, 8.163054e+01, 0.000000e+00
1234, 6, 3.616167e+02, 0.000000e+00, 1.842710e+01, 0.000000e+00, 8.163054e+01, 0.000000e+00
1234, 7, 3.616167e+02, 0.000000e+00, 1.842710e+01, 0.000000e+00, 8.163054e+01, 0.000000e+00
1234, 8, 3.616167e+02, 0.000000e+00, 1.842710e+01, 0.000000e+00, 8.163054e+01, 0.000000e+00
1235, 1, 3.614155e+02, 0.000000e+00, 1.883654e+01, 0.000000e+00, 8.250949e+01, 0.000000e+00
1235, 2, 3.614155e+02, 0.000000e+00, 1.883654e+01, 0.000000e+00, 8.250949e+01, 0.000000e+00
1235, 3, 3.614155e+02, 0.000000e+00, 1.883654e+01, 0.000000e+00, 8.250949e+01, 0.000000e+00
1235, 4, 3.614155e+02, 0.000000e+00, 1.883654e+01, 0.000000e+00, 8.250949e+01, 0.000000e+00
1235, 5, 3.614155e+02, 0.000000e+00, 1.883654e+01, 0.000000e+00, 8.250949e+01, 0.000000e+00
1235, 6, 3.614155e+02, 0.000000e+00, 1.883654e+01, 0.000000e+00, 8.250949e+01, 0.000000e+00
1235, 7, 3.614155e+02, 0.000000e+00, 1.883654e+01, 0.000000e+00, 8.250949e+01, 0.000000e+00
1235, 8, 3.614155e+02, 0.000000e+00, 1.883654e+01, 0.000000e+00, 8.250949e+01, 0.000000e+00
1236, 1, 3.612100e+02, 0.000000e+00, 1.925024e+01, 0.000000e+00, 8.338693e+01, 0.000000e+00
1236, 2, 3.612100e+02, 0.000000e+00, 1.925024e+01, 0.000000e+00, 8.338693e+01, 0.000000e+00
1236, 3, 3.612100e+02, 0.000000e+00, 1.925024e+01, 0.000000e+00, 8.338693e+01, 0.000000e+00
1236, 4, 3.612100e+02, 0.000000e+00, 1.925024e+01, 0.000000e+00, 8.338693e+01, 0.000000e+00
1236, 5, 3.612100e+02, 0.000000e+00, 1.925024e+01, 0.000000e+00, 8.338693e+01, 0.000000e+00
1236, 6, 3.612100e+02, 0.000000e+00, 1.925024e+01, 0.000000e+00, 8.338693e+01, 0.000000e+00
1236, 7, 3.612100e+02, 0.000000e+00, 1.925024e+01, 0.000000e+00, 8.338693e+01, 0.000000e+00
1236, 8, 3.612100e+02, 0.000000e+00, 1.925024e+01, 0.000000e+00, 8.338693e+01, 0.000000e+00
1237, 1, 3.609987e+02, 0.000000e+00, 1.968773e+01, 0.000000e+00, 8.430448e+01, 0.000000e+00
1237, 2, 3.609987e+02, 0.000000e+00, 1.968773e+01, 0.000000e+00, 8.430448e+01, 0.000000e+00
1237, 3, 3.609987e+02, 0.000000e+00, 1.968773e+01, 0.000000e+00, 8.430448e+01, 0.000000e+00
1237, 4, 3.609987e+02, 0.000000e+00, 1.968773e+01, 0.000000e+00, 8.430448e+01, 0.000000e+00
1237, 5, 3.609987e+02, 0.000000e+00, 1.968773e+01, 0.000000e+00, 8.430448e+01, 0.000000e+00
1237, 6, 3.609987e+02, 0.000000e+00, 1.968773e+01, 0.000000e+00, 8.430448e+01, 0.000000e+00
1237, 7, 3.609987e+02, 0.000000e+00, 1.968773e+01, 0.000000e+00, 8.430448e+01, 0.000000e+00
1237, 8, 3.609987e+02, 0.000000e+00, 1.968773e+01, 0.000000e+00, 8.430448e+01, 0.000000e+00
1238, 1, 3.603039e+02, 0.000000e+00, 2.112628e+01, 0.000000e+00, 8.724609e+01, 0.000000e+00
1238, 2, 3.603039e+02, 0.000000e+00, 2.112628e+01, 0.000000e+00, 8.724609e+01, 0.000000e+00
1238, 3, 3.603039e+02, 0.000000e+00, 2.112628e+01, 0.000000e+00, 8.724609e+01, 0.000000e+00
1238, 4, 3.603039e+02, 0.000000e+00, 2.112628e+01, 0.000000e+00, 8.724609e+01, 0.000000e+00
1238, 5, 3.603039e+02, 0.000000e+00, 2.112628e+01, 0.000000e+00, 8.724609e+01, 0.000000e+00
1238, 6, 3.603039e+02, 0.000000e+00, 2.112628e+01, 0.000000e+00, 8.724609e+01, 0.000000e+00
1238, 7, 3.603039e+02, 0.000000e+00, 2.112628e+01, 0.000000e+00, 8.724609e+01, 0.000000e+00
1238, 8, 3.603039e+02, 0.000000e+00, 2.112628e+01, 0.000000e+00, 8.724609e+01, 0.000000e+00
1239, 1, 3.600842e+02, 0.000000e+00, 2.158398e+01, 0.000000e+00, 8.815924e+01, 0.000000e+00
1239, 2, 3.600842e+02, 0.000000e+00, 2.158398e+01, 0.000000e+00, 8.815924e+01, 0.000000e+00
1239, 3, 3.600842e+02, 0.000000e+00, 2.158398e+01, 0.000000e+00, 8.815924e+01, 0.000000e+00
1239, 4, 3.600842e+02, 0.000000e+00, 2.158398e+01, 0.000000e+00, 8.815924e+01, 0.000000e+00
1239, 5, 3.600842e+02, 0.000000e+00, 2.158398e+01, 0.000000e+00, 8.815924e+01, 0.000000e+00
1239, 6, 3.600842e+02, 0.000000e+00, 2.158398e+01, 0.000000e+00, 8.815924e+01, 0.000000e+00
1239, 7, 3.600842e+02, 0.000000e+00, 2.158398e+01, 0.000000e+00, 8.815924e+01, 0.000000e+00
1239, 8, 3.600842e+02, 0.000000e+00, 2.158398e+01, 0.000000e+00, 8.815924e+01, 0.000000e+00
1240, 1, 3.598683e+02, 0.000000e+00, 2.202602e+01, 0.000000e+00, 8.903070e+01, 0.000000e+00
1240, 2, 3.598683e+02, 0.000000e+00, 2.202602e+01, 0.000000e+00, 8.903070e+01, 0.000000e+00
1240, 3, 3.598683e+02, 0.000000e+00, 2.202602e+01, 0.000000e+00, 8.903070e+01, 0.000000e+00
1240, 4, 3.598683e+02, 0.000000e+00, 2.202602e+01, 0.000000e+00, 8.903070e+01, 0.000000e+00
1240, 5, 3.598683e+02, 0.000000e+00, 2.202602e+01, 0.000000e+00, 8.903070e+01, 0.000000e+00
1240, 6, 3.598683e+02, 0.000000e+00, 2.202602e+01, 0.000000e+00, 8.903070e+01, 0.000000e+00
1240, 7, 3.598683e+02, 0.000000e+00, 2.202602e+01, 0.000000e+00, 8.903070e+01, 0.000000e+00
1240, 8, 3.598683e+02, 0.000000e+00, 2.202602e+01, 0.000000e+00, 8.903070e+01, 0.000000e+00
1241, 1, 3.596481e+02, 0.000000e+00, 2.247227e+01, 0.000000e+00, 8.990056e+01, 0.000000e+00
1241, 2, 3.596481e+02, 0.000000e+00, 2.247227e+01, 0.000000e+00, 8.990056e+01, 0.000000e+00
1241, 3, 3.596481e+02, 0.000000e+00, 2.247227e+01, 0.000000e+00, 8.990056e+01, 0.000000e+00
1241, 4, 3.596481e+02, 0.000000e+00, 2.247227e+01, 0.000000e+00, 8.990056e+01, 0.000000e+00
1241, 5, 3.596481e+02, 0.000000e+00, 2.247227e+01, 0.000000e+00, 8.990056e+01, 0.000000e+00
1241, 6, 3.596481e+02, 0.000000e+00, 2.247227e+01, 0.000000e+00, 8.990056e+01, 0.000000e+00
1241, 7, 3.596481e+02, 0.000000e+00, 2.247227e+01, 0.000000e+00, 8.990056e+01, 0.000000e+00
1241, 8, 3.596481e+02, 0.000000e+00, 2.247227e+01, 0.000000e+00, 8.990056e+01, 0.000000e+00
1242, 1, 3.594206e+02, 0.000000e+00, 2.294376e+01, 0.000000e+00, 9.081001e+01, 0.000000e+00
1242, 2, 3.594206e+02, 0.000000e+00, 2.294376e+01, 0.000000e+00, 9.081001e+01, 0.000000e+00
1242, 3, 3.594206e+02, 0.000000e+00, 2.294376e+01, 0.000000e+00, 9.081001e+01, 0.000000e+00
1242, 4, 3.594206e+02, 0.000000e+00, 2.294376e+01, 0.000000e+00, 9.081001e+01, 0.000000e+00
1242, 5, 3.594206e+02, 0.000000e+00, 2.294376e+01, 0.000000e+00, 9.081001e+01, 0.000000e+00
1242, 6, 3.594206e+02, 0.000000e+00, 2.294376e+01, 0.000000e+00, 9.081001e+01, 0.000000e+00
1242, 7, 3.594206e+02, 0.000000e+00, 2.294376e+01, 0.000000e+00, 9.081001e+01, 0.000000e+00
1242, 8, 3.594206e+02, 0.000000e+00, 2.294376e+01, 0.000000e+00, 9.081001e+01, 0.000000e+00
1243, 1, 3.586752e+02, 0.000000e+00, 2.448646e+01, 0.000000e+00, 9.371599e+01, 0.000000e+00
1243, 2, 3.586752e+02, 0.000000e+00, 2.448646e+01, 0.000000e+00, 9.371599e+01, 0.000000e+00
1243, 3, 3.586752e+02, 0.000000e+00, 2.448646e+01, 0.000000e+00, 9.371599e+01, 0.000000e+00
1243, 4, 3.586752e+02, 0.000000e+00, 2.448646e+01, 0.000000e+00, 9.371599e+01, 0.000000e+00
1243, 5, 3.586752e+02, 0.000000e+00, 2.448646e+01, 0.000000e+00, 9.371599e+01, 0.000000e+00
1243, 6, 3.586752e+02, 0.000000e+00, 2.448646e+01, 0.000000e+00, 9.371599e+01, 0.000000e+00
1243, 7, 3.586752e+02, 0.000000e+00, 2.448646e+01, 0.000000e+00, 9.371599e+01, 0.000000e+00
1243, 8, 3.586752e+02, 0.000000e+00, 2.448646e+01, 0.000000e+00, 9.371599e+01, 0.000000e+00
1244, 1, 3.584341e+02, 0.000000e+00, 2.497755e+01, 0.000000e+00, 9.461926e+01, 0.000000e+00
1244, 2, 3.584341e+02, 0.000000e+00, 2.497755e+01, 0.000000e+00, 9.461926e+01, 0.000000e+00
1244, 3, 3.584341e+02, 0.000000e+00, 2.497755e+01, 0.000000e+00, 9.461926e+01, 0.000000e+00
1244, 4, 3.584341e+02, 0.000000e+00, 2.497755e+01, 0.000000e+00, 9.461926e+01, 0.000000e+00
1244, 5, 3.584341e+02, 0.000000e+00, 2.497755e+01, 0.000000e+00, 9.461926e+01, 0.000000e+00
1244, 6, 3.584341e+02, 0.000000e+00, 2.497755e+01, 0.000000e+00, 9.461926e+01, 0.000000e+00
1244, 7, 3.584341e+02, 0.000000e+00, 2.497755e+01, 0.000000e+00, 9.461926e+01, 0.000000e+00
1244, 8, 3.584341e+02, 0.000000e+00, 2.497755e+01, 0.000000e+00, 9.461926e+01, 0.000000e+00
1245, 1, 3.582037e+02, 0.000000e+00, 2.545187e+01, 0.000000e+00, 9.548274e+01, 0.000000e+00
1245, 2, 3.582037e+02, 0.000000e+00, 2.545187e+01, 0.000000e+00, 9.548274e+01, 0.000000e+00
1245, 3, 3.582037e+02, 0.000000e+00, 2.545187e+01, 0.000000e+00, 9.548274e+01, 0.000000e+00
1245, 4, 3.582037e+02, 0.000000e+00, 2.545187e+01, 0.000000e+00, 9.548274e+01, 0.000000e+00
1245, 5, 3.582037e+02, 0.000000e+00, 2.545187e+01, 0.000000e+00, 9.548274e+01, 0.000000e+00
1245, 6, 3.582037e+02, 0.000000e+00, 2.545187e+01, 0.000000e+00, 9.548274e+01, 0.000000e+00
1245, 7, 3.582037e+02, 0.000000e+00, 2.545187e+01, 0.000000e+00, 9.548274e+01, 0.000000e+00
1245, 8, 3.582037e+02, 0.000000e+00, 2.545187e+01, 0.000000e+00, 9.548274e+01, 0.000000e+00
1246, 1, 3.579747e+02, 0.000000e+00, 2.593074e+01, 0.000000e+00, 9.634599e+01, 0.000000e+00
1246, 2, 3.579747e+02, 0.000000e+00, 2.593074e+01, 0.000000e+00, 9.634599e+01, 0.000000e+00
1246, 3, 3.579747e+02, 0.000000e+00, 2.593074e+01, 0.000000e+00, 9.634599e+01, 0.000000e+00
1246, 4, 3.579747e+02, 0.000000e+00, 2.593074e+01, 0.000000e+00, 9.634599e+01, 0.000000e+00
1246, 5, 3.579747e+02, 0.000000e+00, 2.593074e+01, 0.000000e+00, 9.634599e+01, 0.000000e+00
1246, 6, 3.579747e+02, 0.000000e+00, 2.593074e+01, 0.000000e+00, 9.634599e+01, 0.000000e+00
1246, 7, 3.579747e+02, 0.000000e+00, 2.593074e+01, 0.000000e+00, 9.634599e+01, 0.000000e+00
1246, 8, 3.579747e+02, 0.000000e+00, 2.593074e+01, 0.000000e+00, 9.634599e+01, 0.000000e+00
1247, 1, 3.577314e+02, 0.000000e+00, 2.643586e+01, 0.000000e+00, 9.724679e+01, 0.000000e+00
1247, 2, 3.577314e+02, 0.000000e+00, 2.643586e+01, 0.000000e+00, 9.724679e+01, 0.000000e+00
1247, 3, 3.577314e+02, 0.000000e+00, 2.643586e+01, 0.000000e+00, 9.724679e+01, 0.000000e+00
1247, 4, 3.577314e+02, 0.000000e+00, 2.643586e+01, 0.000000e+00, 9.724679e+01, 0.000000e+00
1247, 5, 3.577314e+02, 0.000000e+00, 2.643586e+01, 0.000000e+00, 9.724679e+01, 0.000000e+00
1247, 6, 3.577314e+02, 0.000000e+00, 2.643586e+01, 0.000000e+00, 9.724679e+01, 0.000000e+00
1247, 7, 3.577314e+02, 0.000000e+00, 2.643586e+01, 0.000000e+00, 9.724679e+01, 0.000000e+00
1247, 8, 3.577314e+02, 0.000000e+00, 2.643586e+01, 0.000000e+00, 9.724679e+01, 0.000000e+00
1248, 1, 3.568374e+02, 0.000000e+00, 2.829386e+01, 0.000000e+00, 1.004804e+02, 0.000000e+00
1248, 2, 3.568374e+02, 0.000000e+00, 2.829386e+01, 0.000000e+00, 1.004804e+02, 0.000000e+00
1248, 3, 3.568374e+02, 0.000000e+00, 2.829386e+01, 0.000000e+00, 1.004804e+02, 0.000000e+00
1248, 4, 3.568374e+02, 0.000000e+00, 2.829386e+01, 0.000000e+00, 1.004804e+02, 0.000000e+00
1248, 5, 3.568374e+02, 0.000000e+00, 2.829386e+01, 0.000000e+00, 1.004804e+02, 0.000000e+00
1248, 6, 3.568374e+02, 0.000000e+00, 2.829386e+01, 0.000000e+00, 1.004804e+02, 0.000000e+00
1248, 7, 3.568374e+02, 0.000000e+00, 2.829386e+01, 0.000000e+00, 1.004804e+02, 0.000000e+00
1248, 8, 3.568374e+02, 0.000000e+00, 2.829386e+01, 0.000000e+00, 1.004804e+02, 0.000000e+00
1249, 1, 3.565844e+02, 0.000000e+00, 2.882058e+01, 0.000000e+00, 1.013754e+02, 0.000000e+00
1249, 2, 3.565844e+02, 0.000000e+00, 2.882058e+01, 0.000000e+00, 1.013754e+02, 0.000000e+00
1249, 3, 3.565844e+02, 0.000000e+00, 2.882058e+01, 0.000000e+00, 1.013754e+02, 0.000000e+00
1249, 4, 3.565844e+02, 0.000000e+00, 2.882058e+01, 0.000000e+00, 1.013754e+02, 0.000000e+00
1249, 5, 3.565844e+02, 0.000000e+00, 2.882058e+01, 0.000000e+00, 1.013754e+02, 0.000000e+00
1249, 6, 3.565844e+02, 0.000000e+00, 2.882058e+01, 0.000000e+00, 1.013754e+02, 0.000000e+00
1249, 7, 3.565844e+02, 0.000000e+00, 2.882058e+01, 0.000000e+00, 1.013754e+02, 0.000000e+00
1249, 8, 3.565844e+02, 0.000000e+00, 2.882058e+01, 0.000000e+00, 1.013754e+02, 0.000000e+00
1250, 1, 3.563437e+02, 0.000000e+00, 2.932905e+01, 0.000000e+00, 1.022312e+02, 0.000000e+00
1250, 2, 3.563437e+02, 0.000000e+00, 2.932905e+01, 0.000000e+00, 1.022312e+02, 0.000000e+00
1250, 3, 3.563437e+02, 0.000000e+00, 2.932905e+01, 0.000000e+00, 1.022312e+02, 0.000000e+00
1250, 4, 3.563437e+02, 0.000000e+00, 2.932905e+01, 0.000000e+00, 1.022312e+02, 0.000000e+00
1250, 5, 3.563437e+02, 0.000000e+00, 2.932905e+01, 0.000000e+00, 1.022312e+02, 0.000000e+00
1250, 6, 3.563437e+02, 0.000000e+00, 2.932905e+01, 0.000000e+00, 1.022312e+02, 0.000000e+00
1250, 7, 3.563437e+02, 0.000000e+00, 2.932905e+01, 0.000000e+00, 1.022312e+02, 0.000000e+00
1250, 8, 3.563437e+02, 0.000000e+00, 2.932905e+01, 0.000000e+00, 1.022312e+02, 0.000000e+00
1251, 1, 3.560934e+02, 0.000000e+00, 2.984116e+01, 0.000000e+00, 1.030837e+02, 0.000000e+00
1251, 2, 3.560934e+02, 0.000000e+00, 2.984116e+01, 0.000000e+00, 1.030837e+02, 0.000000e+00
1251, 3, 3.560934e+02, 0.000000e+00, 2.984116e+01, 0.000000e+00, 1.030837e+02, 0.000000e+00
1251, 4, 3.560934e+02, 0.000000e+00, 2.984116e+01, 0.000000e+00, 1.030837e+02, 0.000000e+00
1251, 5, 3.560934e+02, 0.000000e+00, 2.984116e+01, 0.000000e+00, 1.030837e+02, 0.000000e+00
1251, 6, 3.560934e+02, 0.000000e+00, 2.984116e+01, 0.000000e+00, 1.030837e+02, 0.000000e+00
1251, 7, 3.560934e+02, 0.000000e+00, 2.984116e+01, 0.000000e+00, 1.030837e+02, 0.000000e+00
1251, 8, 3.560934e+02, 0.000000e+00, 2.984116e+01, 0.000000e+00, 1.030837e+02, 0.000000e+00
1252, 1, 3.558328e+02, 0.000000e+00, 3.038138e+01, 0.000000e+00, 1.039745e+02, 0.000000e+00
1252, 2, 3.558328e+02, 0.000000e+00, 3.038138e+01, 0.000000e+00, 1.039745e+02, 0.000000e+00
1252, 3, 3.558328e+02, 0.000000e+00, 3.038138e+01, 0.000000e+00, 1.039745e+02, 0.000000e+00
1252, 4, 3.558328e+02, 0.000000e+00, 3.038138e+01, 0.000000e+00, 1.039745e+02, 0.000000e+00
1252, 5, 3.558328e+02, 0.000000e+00, 3.038138e+01, 0.000000e+00, 1.039745e+02, 0.000000e+00
1252, 6, 3.558328e+02, 0.000000e+00, 3.038138e+01, 0.000000e+00, 1.039745e+02, 0.000000e+00
1252, 7, 3.558328e+02, 0.000000e+00, 3.038138e+01, 0.000000e+00, 1.039745e+02, 0.000000e+00
1252, 8, 3.558328e+02, 0.000000e+00, 3.038138e+01, 0.000000e+00, 1.039745e+02, 0.000000e+00
1253, 1, 3.549981e+02, 0.000000e+00, 3.213241e+01, 0.000000e+00, 1.068033e+02, 0.000000e+00
1253, 2, 3.549981e+02, 0.000000e+00, 3.213241e+01, 0.000000e+00, 1.068033e+02, 0.000000e+00
1253, 3, 3.549981e+02, 0.000000e+00, 3.213241e+01, 0.000000e+00, 1.068033e+02, 0.000000e+00
1253, 4, 3.549981e+02, 0.000000e+00, 3.213241e+01, 0.000000e+00, 1.068033e+02, 0.000000e+00
1253, 5, 3.549981e+02, 0.000000e+00, 3.213241e+01, 0.000000e+00, 1.068033e+02, 0.000000e+00
1253, 6, 3.549981e+02, 0.000000e+00, 3.213241e+01, 0.000000e+00, 1.068033e+02, 0.000000e+00
1253, 7, 3.549981e+02, 0.000000e+00, 3.213241e+01, 0.000000e+00, 1.068033e+02, 0.000000e+00
1253, 8, 3.549981e+02, 0.000000e+00, 3.213241e+01, 0.000000e+00, 1.068033e+02, 0.000000e+00
1254, 1, 3.547299e+02, 0.000000e+00, 3.269216e+01, 0.000000e+00, 1.076888e+02, 0.000000e+00
1254, 2, 3.547299e+02, 0.000000e+00, 3.269216e+01, 0.000000e+00, 1.076888e+02, 0.000000e+00
1254, 3, 3.547299e+02, 0.000000e+00, 3.269216e+01, 0.000000e+00, 1.076888e+02, 0.000000e+00
1254, 4, 3.547299e+02, 0.000000e+00, 3.269216e+01, 0.000000e+00, 1.076888e+02, 0.000000e+00
1254, 5, 3.547299e+02, 0.000000e+00, 3.269216e+01, 0.000000e+00, 1.076888e+02, 0.000000e+00
1254, 6, 3.547299e+02, 0.000000e+00, 3.269216e+01, 0.000000e+00, 1.076888e+02, 0.000000e+00
1254, 7, 3.547299e+02, 0.000000e+00, 3.269216e+01, 0.000000e+00, 1.076888e+02, 0.000000e+00
1254, 8, 3.547299e+02, 0.000000e+00, 3.269216e+01, 0.000000e+00, 1.076888e+02, 0.000000e+00
1255, 1, 3.544700e+02, 0.000000e+00, 3.323176e+01, 0.000000e+00, 1.085341e+02, 0.000000e+00
1255, 2, 3.544700e+02, 0.000000e+00, 3.323176e+01, 0.000000e+00, 1.085341e+02, 0.000000e+00
1255, 3, 3.544700e+02, 0.000000e+00, 3.323176e+01, 0.000000e+00, 1.085341e+02, 0.000000e+00
1255, 4, 3.544700e+02, 0.000000e+00, 3.323176e+01, 0.000000e+00, 1.085341e+02, 0.000000e+00
1255, 5, 3.544700e+02, 0.000000e+00, 3.323176e+01, 0.000000e+00, 1.085341e+02, 0.000000e+00
1255, 6, 3.544700e+02, 0.000000e+00, 3.323176e+01, 0.000000e+00, 1.085341e+02, 0.000000e+00
1255, 7, 3.544700e+02, 0.000000e+00, 3.323176e+01, 0.000000e+00, 1.085341e+02, 0.000000e+00
1255, 8, 3.544700e+02, 0.000000e+00, 3.323176e+01, 0.000000e+00, 1.085341e+02, 0.000000e+00
1256, 1, 3.542060e+02, 0.000000e+00, 3.377538e+01, 0.000000e+00, 1.093775e+02, 0.000000e+00
1256, 2, 3.542060e+02, 0.000000e+00, 3.377538e+01, 0.000000e+00, 1.093775e+02, 0.000000e+00
1256, 3, 3.542060e+02, 0.000000e+00, 3.377538e+01, 0.000000e+00, 1.093775e+02, 0.000000e+00
1256, 4, 3.542060e+02, 0.000000e+00, 3.377538e+01, 0.000000e+00, 1.093775e+02, 0.000000e+00
1256, 5, 3.542060e+02, 0.000000e+00, 3.377538e+01, 0.000000e+00, 1.093775e+02, 0.000000e+00
1256, 6, 3.542060e+02, 0.000000e+00, 3.377538e+01, 0.000000e+00, 1.093775e+02, 0.000000e+00
1256, 7, 3.542060e+02, 0.000000e+00, 3.377538e+01, 0.000000e+00, 1.093775e+02, 0.000000e+00
1256, 8, 3.542060e+02, 0.000000e+00, 3.377538e+01, 0.000000e+00, 1.093775e+02, 0.000000e+00
1257, 1, 3.539359e+02, 0.000000e+00, 3.434898e+01, 0.000000e+00, 1.102603e+02, 0.000000e+00
1257, 2, 3.539359e+02, 0.000000e+00, 3.434898e+01, 0.000000e+00, 1.102603e+02, 0.000000e+00
1257, 3, 3.539359e+02, 0.000000e+00, 3.434898e+01, 0.000000e+00, 1.102603e+02, 0.000000e+00
1257, 4, 3.539359e+02, 0.000000e+00, 3.434898e+01, 0.000000e+00, 1.102603e+02, 0.000000e+00
1257, 5, 3.539359e+02, 0.000000e+00, 3.434898e+01, 0.000000e+00, 1.102603e+02, 0.000000e+00
1257, 6, 3.539359e+02, 0.000000e+00, 3.434898e+01, 0.000000e+00, 1.102603e+02, 0.000000e+00
1257, 7, 3.539359e+02, 0.000000e+00, 3.434898e+01, 0.000000e+00, 1.102603e+02, 0.000000e+00
1257, 8, 3.539359e+02, 0.000000e+00, 3.434898e+01, 0.000000e+00, 1.102603e+02, 0.000000e+00
1258, 1, 3.530571e+02, 0.000000e+00, 3.619763e+01, 0.000000e+00, 1.130479e+02, 0.000000e+00
1258, 2, 3.530571e+02, 0.000000e+00, 3.619763e+01, 0.000000e+00, 1.130479e+02, 0.000000e+00
1258, 3, 3.530571e+02, 0.000000e+00, 3.619763e+01, 0.000000e+00, 1.130479e+02, 0.000000e+00
1258, 4, 3.530571e+02, 0.000000e+00, 3.619763e+01, 0.000000e+00, 1.130479e+02, 0.000000e+00
1258, 5, 3.530571e+02, 0.000000e+00, 3.619763e+01, 0.000000e+00, 1.130479e+02, 0.000000e+00
1258, 6, 3.530571e+02, 0.000000e+00, 3.619763e+01, 0.000000e+00, 1.130479e+02, 0.000000e+00
1258, 7, 3.530571e+02, 0.000000e+00, 3.619763e+01, 0.000000e+00, 1.130479e+02, 0.000000e+00
1258, 8, 3.530571e+02, 0.000000e+00, 3.619763e+01, 0.000000e+00, 1.130479e+02, 0.000000e+00
1259, 1, 3.527796e+02, 0.000000e+00, 3.679056e+01, 0.000000e+00, 1.139252e+02, 0.000000e+00
1259, 2, 3.527796e+02, 0.000000e+00, 3.679056e+01, 0.000000e+00, 1.139252e+02, 0.000000e+00
1259, 3, 3.527796e+02, 0.000000e+00, 3.679056e+01, 0.000000e+00, 1.139252e+02, 0.000000e+00
1259, 4, 3.527796e+02, 0.000000e+00, 3.679056e+01, 0.000000e+00, 1.139252e+02, 0.000000e+00
1259, 5, 3.527796e+02, 0.000000e+00, 3.679056e+01, 0.000000e+00, 1.139252e+02, 0.000000e+00
1259, 6, 3.527796e+02, 0.000000e+00, 3.679056e+01, 0.000000e+00, 1.139252e+02, 0.000000e+00
1259, 7, 3.527796e+02, 0.000000e+00, 3.679056e+01, 0.000000e+00, 1.139252e+02, 0.000000e+00
1259, 8, 3.527796e+02, 0.000000e+00, 3.679056e+01, 0.000000e+00, 1.139252e+02, 0.000000e+00
1260, 1, 3.525063e+02, 0.000000e+00, 3.736139e+01, 0.000000e+00, 1.147612e+02, 0.000000e+00
1260, 2, 3.525063e+02, 0.000000e+00, 3.736139e+01, 0.000000e+00, 1.147612e+02, 0.000000e+00
1260, 3, 3.525063e+02, 0.000000e+00, 3.736139e+01, 0.000000e+00, 1.147612e+02, 0.000000e+00
1260, 4, 3.525063e+02, 0.000000e+00, 3.736139e+01, 0.000000e+00, 1.147612e+02, 0.000000e+00
1260, 5, 3.525063e+02, 0.000000e+00, 3.736139e+01, 0.000000e+00, 1.147612e+02, 0.000000e+00
1260, 6, 3.525063e+02, 0.000000e+00, 3.736139e+01, 0.000000e+00, 1.147612e+02, 0.000000e+00
1260, 7, 3.525063e+02, 0.000000e+00, 3.736139e+01, 0.000000e+00, 1.147612e+02, 0.000000e+00
1260, 8, 3.525063e+02, 0.000000e+00, 3.736139e+01, 0.000000e+00, 1.147612e+02, 0.000000e+00
1261, 1, 3.522290e+02, 0.000000e+00, 3.793617e+01, 0.000000e+00, 1.155951e+02, 0.000000e+00
1261, 2, 3.522290e+02, 0.000000e+00, 3.793617e+01, 0.000000e+00, 1.155951e+02, 0.000000e+00
1261, 3, 3.522290e+02, 0.000000e+00, 3.793617e+01, 0.000000e+00, 1.155951e+02, 0.000000e+00
1261, 4, 3.522290e+02, 0.000000e+00, 3.793617e+01, 0.000000e+00, 1.155951e+02, 0.000000e+00
1261, 5, 3.522290e+02, 0.000000e+00, 3.793617e+01, 0.000000e+00, 1.155951e+02, 0.000000e+00
1261, 6, 3.522290e+02, 0.000000e+00, 3.793617e+01, 0.000000e+00, 1.155951e+02, 0.000000e+00
1261, 7, 3.522290e+02, 0.000000e+00, 3.793617e+01, 0.000000e+00, 1.155951e+02, 0.000000e+00
1261, 8, 3.522290e+02, 0.000000e+00, 3.793617e+01, 0.000000e+00, 1.155951e+02, 0.000000e+00
1262, 1, 3.519442e+02, 0.000000e+00, 3.854231e+01, 0.000000e+00, 1.164678e+02, 0.000000e+00
1262, 2, 3.519442e+02, 0.000000e+00, 3.854231e+01, 0.000000e+00, 1.164678e+02, 0.000000e+00
1262, 3, 3.519442e+02, 0.000000e+00, 3.854231e+01, 0.000000e+00, 1.164678e+02, 0.000000e+00
1262, 4, 3.519442e+02, 0.000000e+00, 3.854231e+01, 0.000000e+00, 1.164678e+02, 0.000000e+00
1262, 5, 3.519442e+02, 0.000000e+00, 3.854231e+01, 0.000000e+00, 1.164678e+02, 0.000000e+00
1262, 6, 3.519442e+02, 0.000000e+00, 3.854231e+01, 0.000000e+00, 1.164678e+02, 0.000000e+00
1262, 7, 3.519442e+02, 0.000000e+00, 3.854231e+01, 0.000000e+00, 1.164678e+02, 0.000000e+00
1262, 8, 3.519442e+02, 0.000000e+00, 3.854231e+01, 0.000000e+00, 1.164678e+02, 0.000000e+00
1263, 1, 3.509050e+02, 0.000000e+00, 4.073580e+01, 0.000000e+00, 1.195592e+02, 0.000000e+00
1263, 2, 3.509050e+02, 0.000000e+00, 4.073580e+01, 0.000000e+00, 1.195592e+02, 0.000000e+00
1263, 3, 3.509050e+02, 0.000000e+00, 4.073580e+01, 0.000000e+00, 1.195592e+02, 0.000000e+00
1263, 4, 3.509050e+02, 0.000000e+00, 4.073580e+01, 0.000000e+00, 1.195592e+02, 0.000000e+00
1263, 5, 3.509050e+02, 0.000000e+00, 4.073580e+01, 0.000000e+00, 1.195592e+02, 0.000000e+00
1263, 6, 3.509050e+02, 0.000000e+00, 4.073580e+01, 0.000000e+00, 1.195592e+02, 0.000000e+00
1263, 7, 3.509050e+02, 0.000000e+00, 4.073580e+01, 0.000000e+00, 1.195592e+02, 0.000000e+00
1263, 8, 3.509050e+02, 0.000000e+00, 4.073580e+01, 0.000000e+00, 1.195592e+02, 0.000000e+00
1264, 1, 3.506113e+02, 0.000000e+00, 4.136272e+01, 0.000000e+00, 1.204252e+02, 0.000000e+00
1264, 2, 3.506113e+02, 0.000000e+00, 4.136272e+01, 0.000000e+00, 1.204252e+02, 0.000000e+00
1264, 3, 3.506113e+02, 0.000000e+00, 4.136272e+01, 0.000000e+00, 1.204252e+02, 0.000000e+00
1264, 4, 3.506113e+02, 0.000000e+00, 4.136272e+01, 0.000000e+00, 1.204252e+02, 0.000000e+00
1264, 5, 3.506113e+02, 0.000000e+00, 4.136272e+01, 0.000000e+00, 1.204252e+02, 0.000000e+00
1264, 6, 3.506113e+02, 0.000000e+00, 4.136272e+01, 0.000000e+00, 1.204252e+02, 0.000000e+00
1264, 7, 3.506113e+02, 0.000000e+00, 4.136272e+01, 0.000000e+00, 1.204252e+02, 0.000000e+00
1264, 8, 3.506113e+02, 0.000000e+00, 4.136272e+01, 0.000000e+00, 1.204252e+02, 0.000000e+00
1265, 1, 3.503287e+02, 0.000000e+00, 4.196666e+01, 0.000000e+00, 1.212523e+02, 0.000000e+00
1265, 2, 3.503287e+02, 0.000000e+00, 4.196666e+01, 0.000000e+00, 1.212523e+02, 0.000000e+00
1265, 3, 3.503287e+02, 0.000000e+00, 4.196666e+01, 0.000000e+00, 1.212523e+02, 0.000000e+00
1265, 4, 3.503287e+02, 0.000000e+00, 4.196666e+01, 0.000000e+00, 1.212523e+02, 0.000000e+00
1265, 5, 3.503287e+02, 0.000000e+00, 4.196666e+01, 0.000000e+00, 1.212523e+02, 0.000000e+00
1265, 6, 3.503287e+02, 0.000000e+00, 4.196666e+01, 0.000000e+00, 1.212523e+02, 0.000000e+00
1265, 7, 3.503287e+02, 0.000000e+00, 4.196666e+01, 0.000000e+00, 1.212523e+02, 0.000000e+00
1265, 8, 3.503287e+02, 0.000000e+00, 4.196666e+01, 0.000000e+00, 1.212523e+02, 0.000000e+00
1266, 1, 3.500422e+02, 0.000000e+00, 4.257450e+01, 0.000000e+00, 1.220773e+02, 0.000000e+00
1266, 2, 3.500422e+02, 0.000000e+00, 4.257450e+01, 0.000000e+00, 1.220773e+02, 0.000000e+00
1266, 3, 3.500422e+02, 0.000000e+00, 4.257450e+01, 0.000000e+00, 1.220773e+02, 0.000000e+00
1266, 4, 3.500422e+02, 0.000000e+00, 4.257450e+01, 0.000000e+00, 1.220773e+02, 0.000000e+00
1266, 5, 3.500422e+02, 0.000000e+00, 4.257450e+01, 0.000000e+00, 1.220773e+02, 0.000000e+00
1266, 6, 3.500422e+02, 0.000000e+00, 4.257450e+01, 0.000000e+00, 1.220773e+02, 0.000000e+00
1266, 7, 3.500422e+02, 0.000000e+00, 4.257450e+01, 0.000000e+00, 1.220773e+02, 0.000000e+00
1266, 8, 3.500422e+02, 0.000000e+00, 4.257450e+01, 0.000000e+00, 1.220773e+02, 0.000000e+00
1267, 1, 3.497361e+02, 0.000000e+00, 4.321381e+01, 0.000000e+00, 1.229367e+02, 0.000000e+00
1267, 2, 3.497361e+02, 0.000000e+00, 4.321381e+01, 0.000000e+00, 1.229367e+02, 0.000000e+00
1267, 3, 3.497361e+02, 0.000000e+00, 4.321381e+01, 0.000000e+00, 1.229367e+02, 0.000000e+00
1267, 4, 3.497361e+02, 0.000000e+00, 4.321381e+01, 0.000000e+00, 1.229367e+02, 0.000000e+00
1267, 5, 3.497361e+02, 0.000000e+00, 4.321381e+01, 0.000000e+00, 1.229367e+02, 0.000000e+00
1267, 6, 3.497361e+02, 0.000000e+00, 4.321381e+01, 0.000000e+00, 1.229367e+02, 0.000000e+00
1267, 7, 3.497361e+02, 0.000000e+00, 4.321381e+01, 0.000000e+00, 1.229367e+02, 0.000000e+00
1267, 8, 3.497361e+02, 0.000000e+00, 4.321381e+01, 0.000000e+00, 1.229367e+02, 0.000000e+00
1268, 1, 3.487766e+02, 0.000000e+00, 4.525627e+01, 0.000000e+00, 1.256357e+02, 0.000000e+00
1268, 2, 3.487766e+02, 0.000000e+00, 4.525627e+01, 0.000000e+00, 1.256357e+02, 0.000000e+00
1268, 3, 3.487766e+02, 0.000000e+00, 4.525627e+01, 0.000000e+00, 1.256357e+02, 0.000000e+00
1268, 4, 3.487766e+02, 0.000000e+00, 4.525627e+01, 0.000000e+00, 1.256357e+02, 0.000000e+00
1268, 5, 3.487766e+02, 0.000000e+00, 4.525627e+01, 0.000000e+00, 1.256357e+02, 0.000000e+00
1268, 6, 3.487766e+02, 0.000000e+00, 4.525627e+01, 0.000000e+00, 1.256357e+02, 0.000000e+00
1268, 7, 3.487766e+02, 0.000000e+00, 4.525627e+01, 0.000000e+00, 1.256357e+02, 0.000000e+00
1268, 8, 3.487766e+02, 0.000000e+00, 4.525627e+01, 0.000000e+00, 1.256357e+02, 0.000000e+00
1269, 1, 3.484689e+02, 0.000000e+00, 4.591503e+01, 0.000000e+00, 1.264909e+02, 0.000000e+00
1269, 2, 3.484689e+02, 0.000000e+00, 4.591503e+01, 0.000000e+00, 1.264909e+02, 0.000000e+00
1269, 3, 3.484689e+02, 0.000000e+00, 4.591503e+01, 0.000000e+00, 1.264909e+02, 0.000000e+00
1269, 4, 3.484689e+02, 0.000000e+00, 4.591503e+01, 0.000000e+00, 1.264909e+02, 0.000000e+00
1269, 5, 3.484689e+02, 0.000000e+00, 4.591503e+01, 0.000000e+00, 1.264909e+02, 0.000000e+00
1269, 6, 3.484689e+02, 0.000000e+00, 4.591503e+01, 0.000000e+00, 1.264909e+02, 0.000000e+00
1269, 7, 3.484689e+02, 0.000000e+00, 4.591503e+01, 0.000000e+00, 1.264909e+02, 0.000000e+00
1269, 8, 3.484689e+02, 0.000000e+00, 4.591503e+01, 0.000000e+00, 1.264909e+02, 0.000000e+00
1270, 1, 3.481684e+02, 0.000000e+00, 4.654877e+01, 0.000000e+00, 1.273060e+02, 0.000000e+00
1270, 2, 3.481684e+02, 0.000000e+00, 4.654877e+01, 0.000000e+00, 1.273060e+02, 0.000000e+00
1270, 3, 3.481684e+02, 0.000000e+00, 4.654877e+01, 0.000000e+00, 1.273060e+02, 0.000000e+00
1270, 4, 3.481684e+02, 0.000000e+00, 4.654877e+01, 0.000000e+00, 1.273060e+02, 0.000000e+00
1270, 5, 3.481684e+02, 0.000000e+00, 4.654877e+01, 0.000000e+00, 1.273060e+02, 0.000000e+00
1270, 6, 3.481684e+02, 0.000000e+00, 4.654877e+01, 0.000000e+00, 1.273060e+02, 0.000000e+00
1270, 7, 3.481684e+02, 0.000000e+00, 4.654877e+01, 0.000000e+00, 1.273060e+02, 0.000000e+00
1270, 8, 3.481684e+02, 0.000000e+00, 4.654877e+01, 0.000000e+00, 1.273060e+02, 0.000000e+00
1271, 1, 3.478693e+02, 0.000000e+00, 4.718703e+01, 0.000000e+00, 1.281207e+02, 0.000000e+00
1271, 2, 3.478693e+02, 0.000000e+00, 4.718703e+01, 0.000000e+00, 1.281207e+02, 0.000000e+00
1271, 3, 3.478693e+02, 0.000000e+00, 4.718703e+01, 0.000000e+00, 1.281207e+02, 0.000000e+00
1271, 4, 3.478693e+02, 0.000000e+00, 4.718703e+01, 0.000000e+00, 1.281207e+02, 0.000000e+00
1271, 5, 3.478693e+02, 0.000000e+00, 4.718703e+01, 0.000000e+00, 1.281207e+02, 0.000000e+00
1271, 6, 3.478693e+02, 0.000000e+00, 4.718703e+01, 0.000000e+00, 1.281207e+02, 0.000000e+00
1271, 7, 3.478693e+02, 0.000000e+00, 4.718703e+01, 0.000000e+00, 1.281207e+02, 0.000000e+00
1271, 8, 3.478693e+02, 0.000000e+00, 4.718703e+01, 0.000000e+00, 1.281207e+02, 0.000000e+00
1272, 1, 3.475547e+02, 0.000000e+00, 4.785866e+01, 0.000000e+00, 1.289709e+02, 0.000000e+00
1272, 2, 3.475547e+02, 0.000000e+00, 4.785866e+01, 0.000000e+00, 1.289709e+02, 0.000000e+00
1272, 3, 3.475547e+02, 0.000000e+00, 4.785866e+01, 0.000000e+00, 1.289709e+02, 0.000000e+00
1272, 4, 3.475547e+02, 0.000000e+00, 4.785866e+01, 0.000000e+00, 1.289709e+02, 0.000000e+00
1272, 5, 3.475547e+02, 0.000000e+00, 4.785866e+01, 0.000000e+00, 1.289709e+02, 0.000000e+00
1272, 6, 3.475547e+02, 0.000000e+00, 4.785866e+01, 0.000000e+00, 1.289709e+02, 0.000000e+00
1272, 7, 3.475547e+02, 0.000000e+00, 4.785866e+01, 0.000000e+00, 1.289709e+02, 0.000000e+00
1272, 8, 3.475547e+02, 0.000000e+00, 4.785866e+01, 0.000000e+00, 1.289709e+02, 0.000000e+00
1273, 1, 3.465883e+02, 0.000000e+00, 4.993179e+01, 0.000000e+00, 1.315514e+02, 0.000000e+00
1273, 2, 3.465883e+02, 0.000000e+00, 4.993179e+01, 0.000000e+00, 1.315514e+02, 0.000000e+00
1273, 3, 3.465883e+02, 0.000000e+00, 4.993179e+01, 0.000000e+00, 1.315514e+02, 0.000000e+00
1273, 4, 3.465883e+02, 0.000000e+00, 4.993179e+01, 0.000000e+00, 1.315514e+02, 0.000000e+00
1273, 5, 3.465883e+02, 0.000000e+00, 4.993179e+01, 0.000000e+00, 1.315514e+02, 0.000000e+00
1273, 6, 3.465883e+02, 0.000000e+00, 4.993179e+01, 0.000000e+00, 1.315514e+02, 0.000000e+00
1273, 7, 3.465883e+02, 0.000000e+00, 4.993179e+01, 0.000000e+00, 1.315514e+02, 0.000000e+00
1273, 8, 3.465883e+02, 0.000000e+00, 4.993179e+01, 0.000000e+00, 1.315514e+02, 0.000000e+00
1274, 1, 3.463102e+02, 0.000000e+00, 5.053121e+01, 0.000000e+00, 1.322856e+02, 0.000000e+00
1274, 2, 3.463102e+02, 0.000000e+00, 5.053121e+01, 0.000000e+00, 1.322856e+02, 0.000000e+00
1274, 3, 3.463102e+02, 0.000000e+00, 5.053121e+01, 0.000000e+00, 1.322856e+02, 0.000000e+00
1274, 4, 3.463102e+02, 0.000000e+00, 5.053121e+01, 0.000000e+00, 1.322856e+02, 0.000000e+00
1274, 5, 3.463102e+02, 0.000000e+00, 5.053121e+01, 0.000000e+00, 1.322856e+02, 0.000000e+00
1274, 6, 3.463102e+02, 0.000000e+00, 5.053121e+01, 0.000000e+00, 1.322856e+02, 0.000000e+00
1274, 7, 3.463102e+02, 0.000000e+00, 5.053121e+01, 0.000000e+00, 1.322856e+02, 0.000000e+00
1274, 8, 3.463102e+02, 0.000000e+00, 5.053121e+01, 0.000000e+00, 1.322856e+02, 0.000000e+00
1275, 1, 3.460287e+02, 0.000000e+00, 5.113399e+01, 0.000000e+00, 1.330182e+02, 0.000000e+00
1275, 2, 3.460287e+02, 0.000000e+00, 5.113399e+01, 0.000000e+00, 1.330182e+02, 0.000000e+00
1275, 3, 3.460287e+02, 0.000000e+00, 5.113399e+01, 0.000000e+00, 1.330182e+02, 0.000000e+00
1275, 4, 3.460287e+02, 0.000000e+00, 5.113399e+01, 0.000000e+00, 1.330182e+02, 0.000000e+00
1275, 5, 3.460287e+02, 0.000000e+00, 5.113399e+01, 0.000000e+00, 1.330182e+02, 0.000000e+00
1275, 6, 3.460287e+02, 0.000000e+00, 5.113399e+01, 0.000000e+00, 1.330182e+02, 0.000000e+00
1275, 7, 3.460287e+02, 0.000000e+00, 5.113399e+01, 0.000000e+00, 1.330182e+02, 0.000000e+00
1275, 8, 3.460287e+02, 0.000000e+00, 5.113399e+01, 0.000000e+00, 1.330182e+02, 0.000000e+00
1276, 1, 3.457441e+02, 0.000000e+00, 5.173987e+01, 0.000000e+00, 1.337489e+02, 0.000000e+00
1276, 2, 3.457441e+02, 0.000000e+00, 5.173987e+01, 0.000000e+00, 1.337489e+02, 0.000000e+00
1276, 3, 3.457441e+02, 0.000000e+00, 5.173987e+01, 0.000000e+00, 1.337489e+02, 0.000000e+00
1276, 4, 3.457441e+02, 0.000000e+00, 5.173987e+01, 0.000000e+00, 1.337489e+02, 0.000000e+00
1276, 5, 3.457441e+02, 0.000000e+00, 5.173987e+01, 0.000000e+00, 1.337489e+02, 0.000000e+00
1276, 6, 3.457441e+02, 0.000000e+00, 5.173987e+01, 0.000000e+00, 1.337489e+02, 0.000000e+00
1276, 7, 3.457441e+02, 0.000000e+00, 5.173987e+01, 0.000000e+00, 1.337489e+02, 0.000000e+00
1276, 8, 3.457441e+02, 0.000000e+00, 5.173987e+01, 0.000000e+00, 1.337489e+02, 0.000000e+00
1277, 1, 3.454617e+02, 0.000000e+00, 5.234961e+01, 0.000000e+00, 1.344797e+02, 0.000000e+00
1277, 2, 3.454617e+02, 0.000000e+00, 5.234961e+01, 0.000000e+00, 1.344797e+02, 0.000000e+00
1277, 3, 3.454617e+02, 0.000000e+00, 5.234961e+01, 0.000000e+00, 1.344797e+02, 0.000000e+00
1277, 4, 3.454617e+02, 0.000000e+00, 5.234961e+01, 0.000000e+00, 1.344797e+02, 0.000000e+00
1277, 5, 3.454617e+02, 0.000000e+00, 5.234961e+01, 0.000000e+00, 1.344797e+02, 0.000000e+00
1277, 6, 3.454617e+02, 0.000000e+00, 5.234961e+01, 0.000000e+00, 1.344797e+02, 0.000000e+00
1277, 7, 3.454617e+02, 0.000000e+00, 5.234961e+01, 0.000000e+00, 1.344797e+02, 0.000000e+00
1277, 8, 3.454617e+02, 0.000000e+00, 5.234961e+01, 0.000000e+00, 1.344797e+02, 0.000000e+00
1278, 1, 3.451369e+02, 0.000000e+00, 5.305522e+01, 0.000000e+00, 1.353193e+02, 0.000000e+00
1278, 2, 3.451369e+02, 0.000000e+00, 5.305522e+01, 0.000000e+00, 1.353193e+02, 0.000000e+00
1278, 3, 3.451369e+02, 0.000000e+00, 5.305522e+01, 0.000000e+00, 1.353193e+02, 0.000000e+00
1278, 4, 3.451369e+02, 0.000000e+00, 5.305522e+01, 0.000000e+00, 1.353193e+02, 0.000000e+00
1278, 5, 3.451369e+02, 0.000000e+00, 5.305522e+01, 0.000000e+00, 1.353193e+02, 0.000000e+00
1278, 6, 3.451369e+02, 0.000000e+00, 5.305522e+01, 0.000000e+00, 1.353193e+02, 0.000000e+00
1278, 7, 3.451369e+02, 0.000000e+00, 5.305522e+01, 0.000000e+00, 1.353193e+02, 0.000000e+00
1278, 8, 3.451369e+02, 0.000000e+00, 5.305522e+01, 0.000000e+00, 1.353193e+02, 0.000000e+00
1279, 1, 3.449374e+02, 0.000000e+00, 5.348672e+01, 0.000000e+00, 1.358292e+02, 0.000000e+00
1279, 2, 3.449374e+02, 0.000000e+00, 5.348672e+01, 0.000000e+00, 1.358292e+02, 0.000000e+00
1279, 3, 3.449374e+02, 0.000000e+00, 5.348672e+01, 0.000000e+00, 1.358292e+02, 0.000000e+00
1279, 4, 3.449374e+02, 0.000000e+00, 5.348672e+01, 0.000000e+00, 1.358292e+02, 0.000000e+00
1279, 5, 3.449374e+02, 0.000000e+00, 5.348672e+01, 0.000000e+00, 1.358292e+02, 0.000000e+00
1279, 6, 3.449374e+02, 0.000000e+00, 5.348672e+01, 0.000000e+00, 1.358292e+02, 0.000000e+00
1279, 7, 3.449374e+02, 0.000000e+00, 5.348672e+01, 0.000000e+00, 1.358292e+02, 0.000000e+00
1279, 8, 3.449374e+02, 0.000000e+00, 5.348672e+01, 0.000000e+00, 1.358292e+02, 0.000000e+00
1280, 1, 3.707137e+02, 0.000000e+00, 6.364585e-05, 0.000000e+00, -1.536046e-01, -0.000000e+00
1280, 2, 3.707137e+02, 0.000000e+00, 6.364585e-05, 0.000000e+00, -1.536046e-01, -0.000000e+00
1280, 3, 3.707137e+02, 0.000000e+00, 6.364585e-05, 0.000000e+00, -1.536046e-01, -0.000000e+00
1280, 4, 3.707137e+02, 0.000000e+00, 6.364585e-05, 0.000000e+00, -1.536046e-01, -0.000000e+00
1280, 5, 3.707137e+02, 0.000000e+00, 6.364585e-05, 0.000000e+00, -1.536046e-01, -0.000000e+00
1280, 6, 3.707137e+02, 0.000000e+00, 6.364585e-05, 0.000000e+00, -1.536046e-01, -0.000000e+00
1280, 7, 3.707137e+02, 0.000000e+00, 6.364585e-05, 0.000000e+00, -1.536046e-01, -0.000000e+00
1280, 8, 3.707137e+02, 0.000000e+00, 6.364585e-05, 0.000000e+00, -1.536046e-01, -0.000000e+00
1281, 1, 3.707137e+02, 0.000000e+00, 5.844524e-07, 0.000000e+00, 1.471953e-02, 0.000000e+00
1281, 2, 3.707137e+02, 0.000000e+00, 5.844524e-07, 0.000000e+00, 1.471953e-02, 0.000000e+00
1281, 3, 3.707137e+02, 0.000000e+00, 5.844524e-07, 0.000000e+00, 1.471953e-02, 0.000000e+00
1281, 4, 3.707137e+02, 0.000000e+00, 5.844524e-07, 0.000000e+00, 1.471953e-02, 0.000000e+00
1281, 5, 3.707137e+02, 0.000000e+00, 5.844524e-07, 0.000000e+00, 1.471953e-02, 0.000000e+00
1281, 6, 3.707137e+02, 0.000000e+00, 5.844524e-07, 0.000000e+00, 1.471953e-02, 0.000000e+00
1281, 7, 3.707137e+02, 0.000000e+00, 5.844524e-07, 0.000000e+00, 1.471953e-02, 0.000000e+00
1281, 8, 3.707137e+02, 0.000000e+00, 5.844524e-07, 0.000000e+00, 1.471953e-02, 0.000000e+00
1282, 1, 3.707137e+02, 0.000000e+00, 7.647774e-05, 0.000000e+00, 1.683786e-01, 0.000000e+00
1282, 2, 3.707137e+02, 0.000000e+00, 7.647774e-05, 0.000000e+00, 1.683786e-01, 0.000000e+00
1282, 3, 3.707137e+02, 0.000000e+00, 7.647774e-05, 0.000000e+00, 1.683786e-01, 0.000000e+00
1282, 4, 3.707137e+02, 0.000000e+00, 7.647774e-05, 0.000000e+00, 1.683786e-01, 0.000000e+00
1282, 5, 3.707137e+02, 0.000000e+00, 7.647774e-05, 0.000000e+00, 1.683786e-01, 0.000000e+00
1282, 6, 3.707137e+02, 0.000000e+00, 7.647774e-05, 0.000000e+00, 1.683786e-01, 0.000000e+00
1282, 7, 3.707137e+02, 0.000000e+00, 7.647774e-05, 0.000000e+00, 1.683786e-01, 0.000000e+00
1282, 8, 3.707137e+02, 0.000000e+00, 7.647774e-05, 0.000000e+00, 1.683786e-01, 0.000000e+00
1283, 1, 3.415604e+02, 0.000000e+00, 6.079684e+01, 0.000000e+00, -1.441034e+02, -0.000000e+00
1283, 2, 3.415604e+02, 0.000000e+00, 6.079684e+01, 0.000000e+00, -1.441034e+02, -0.000000e+00
1283, 3, 3.415604e+02, 0.000000e+00, 6.079684e+01, 0.000000e+00, -1.441034e+02, -0.000000e+00
1283, 4, 3.415604e+02, 0.000000e+00, 6.079684e+01, 0.000000e+00, -1.441034e+02, -0.000000e+00
1283, 5, 3.415604e+02, 0.000000e+00, 6.079684e+01, 0.000000e+00, -1.441034e+02, -0.000000e+00
1283, 6, 3.415604e+02, 0.000000e+00, 6.079684e+01, 0.000000e+00, -1.441034e+02, -0.000000e+00
1283, 7, 3.415604e+02, 0.000000e+00, 6.079684e+01, 0.000000e+00, -1.441034e+02, -0.000000e+00
1283, 8, 3.415604e+02, 0.000000e+00, 6.079684e+01, 0.000000e+00, -1.441034e+02, -0.000000e+00
1284, 1, 3.416207e+02, 0.000000e+00, 6.067112e+01, 0.000000e+00, -1.439670e+02, -0.000000e+00
1284, 2, 3.416207e+02, 0.000000e+00, 6.067112e+01, 0.000000e+00, -1.439670e+02, -0.000000e+00
1284, 3, 3.416207e+02, 0.000000e+00, 6.067112e+01, 0.000000e+00, -1.439670e+02, -0.000000e+00
1284, 4, 3.416207e+02, 0.000000e+00, 6.067112e+01, 0.000000e+00, -1.439670e+02, -0.000000e+00
1284, 5, 3.416207e+02, 0.000000e+00, 6.067112e+01, 0.000000e+00, -1.439670e+02, -0.000000e+00
1284, 6, 3.416207e+02, 0.000000e+00, 6.067112e+01, 0.000000e+00, -1.439670e+02, -0.000000e+00
1284, 7, 3.416207e+02, 0.000000e+00, 6.067112e+01, 0.000000e+00, -1.439670e+02, -0.000000e+00
1284, 8, 3.416207e+02, 0.000000e+00, 6.067112e+01, 0.000000e+00, -1.439670e+02, -0.000000e+00
1285, 1, 3.418091e+02, 0.000000e+00, 6.026257e+01, 0.000000e+00, -1.435211e+02, -0.000000e+00
1285, 2, 3.418091e+02, 0.000000e+00, 6.026257e+01, 0.000000e+00, -1.435211e+02, -0.000000e+00
1285, 3, 3.418091e+02, 0.000000e+00, 6.026257e+01, 0.000000e+00, -1.435211e+02, -0.000000e+00
1285, 4, 3.418091e+02, 0.000000e+00, 6.026257e+01, 0.000000e+00, -1.435211e+02, -0.000000e+00
1285, 5, 3.418091e+02, 0.000000e+00, 6.026257e+01, 0.000000e+00, -1.435211e+02, -0.000000e+00
1285, 6, 3.418091e+02, 0.000000e+00, 6.026257e+01, 0.000000e+00, -1.435211e+02, -0.000000e+00
1285, 7, 3.418091e+02, 0.000000e+00, 6.026257e+01, 0.000000e+00, -1.435211e+02, -0.000000e+00
1285, 8, 3.418091e+02, 0.000000e+00, 6.026257e+01, 0.000000e+00, -1.435211e+02, -0.000000e+00
1286, 1, 3.421041e+02, 0.000000e+00, 5.961059e+01, 0.000000e+00, -1.428041e+02, -0.000000e+00
1286, 2, 3.421041e+02, 0.000000e+00, 5.961059e+01, 0.000000e+00, -1.428041e+02, -0.000000e+00
1286, 3, 3.421041e+02, 0.000000e+00, 5.961059e+01, 0.000000e+00, -1.428041e+02, -0.000000e+00
1286, 4, 3.421041e+02, 0.000000e+00, 5.961059e+01, 0.000000e+00, -1.428041e+02, -0.000000e+00
1286, 5, 3.421041e+02, 0.000000e+00, 5.961059e+01, 0.000000e+00, -1.428041e+02, -0.000000e+00
1286, 6, 3.421041e+02, 0.000000e+00, 5.961059e+01, 0.000000e+00, -1.428041e+02, -0.000000e+00
1286, 7, 3.421041e+02, 0.000000e+00, 5.961059e+01, 0.000000e+00, -1.428041e+02, -0.000000e+00
1286, 8, 3.421041e+02, 0.000000e+00, 5.961059e+01, 0.000000e+00, -1.428041e+02, -0.000000e+00
1287, 1, 3.424011e+02, 0.000000e+00, 5.896248e+01, 0.000000e+00, -1.420874e+02, -0.000000e+00
1287, 2, 3.424011e+02, 0.000000e+00, 5.896248e+01, 0.000000e+00, -1.420874e+02, -0.000000e+00
1287, 3, 3.424011e+02, 0.000000e+00, 5.896248e+01, 0.000000e+00, -1.420874e+02, -0.000000e+00
1287, 4, 3.424011e+02, 0.000000e+00, 5.896248e+01, 0.000000e+00, -1.420874e+02, -0.000000e+00
1287, 5, 3.424011e+02, 0.000000e+00, 5.896248e+01, 0.000000e+00, -1.420874e+02, -0.000000e+00
1287, 6, 3.424011e+02, 0.000000e+00, 5.896248e+01, 0.000000e+00, -1.420874e+02, -0.000000e+00
1287, 7, 3.424011e+02, 0.000000e+00, 5.896248e+01, 0.000000e+00, -1.420874e+02, -0.000000e+00
1287, 8, 3.424011e+02, 0.000000e+00, 5.896248e+01, 0.000000e+00, -1.420874e+02, -0.000000e+00
1288, 1, 3.427002e+02, 0.000000e+00, 5.831826e+01, 0.000000e+00, -1.413707e+02, -0.000000e+00
1288, 2, 3.427002e+02, 0.000000e+00, 5.831826e+01, 0.000000e+00, -1.413707e+02, -0.000000e+00
1288, 3, 3.427002e+02, 0.000000e+00, 5.831826e+01, 0.000000e+00, -1.413707e+02, -0.000000e+00
1288, 4, 3.427002e+02, 0.000000e+00, 5.831826e+01, 0.000000e+00, -1.413707e+02, -0.000000e+00
1288, 5, 3.427002e+02, 0.000000e+00, 5.831826e+01, 0.000000e+00, -1.413707e+02, -0.000000e+00
1288, 6, 3.427002e+02, 0.000000e+00, 5.831826e+01, 0.000000e+00, -1.413707e+02, -0.000000e+00
1288, 7, 3.427002e+02, 0.000000e+00, 5.831826e+01, 0.000000e+00, -1.413707e+02, -0.000000e+00
1288, 8, 3.427002e+02, 0.000000e+00, 5.831826e+01, 0.000000e+00, -1.413707e+02, -0.000000e+00
1289, 1, 3.429966e+02, 0.000000e+00, 5.767676e+01, 0.000000e+00, -1.406518e+02, -0.000000e+00
1289, 2, 3.429966e+02, 0.000000e+00, 5.767676e+01, 0.000000e+00, -1.406518e+02, -0.000000e+00
1289, 3, 3.429966e+02, 0.000000e+00, 5.767676e+01, 0.000000e+00, -1.406518e+02, -0.000000e+00
1289, 4, 3.429966e+02, 0.000000e+00, 5.767676e+01, 0.000000e+00, -1.406518e+02, -0.000000e+00
1289, 5, 3.429966e+02, 0.000000e+00, 5.767676e+01, 0.000000e+00, -1.406518e+02, -0.000000e+00
1289, 6, 3.429966e+02, 0.000000e+00, 5.767676e+01, 0.000000e+00, -1.406518e+02, -0.000000e+00
1289, 7, 3.429966e+02, 0.000000e+00, 5.767676e+01, 0.000000e+00, -1.406518e+02, -0.000000e+00
1289, 8, 3.429966e+02, 0.000000e+00, 5.767676e+01, 0.000000e+00, -1.406518e+02, -0.000000e+00
1290, 1, 3.440076e+02, 0.000000e+00, 5.548762e+01, 0.000000e+00, -1.381599e+02, -0.000000e+00
1290, 2, 3.440076e+02, 0.000000e+00, 5.548762e+01, 0.000000e+00, -1.381599e+02, -0.000000e+00
1290, 3, 3.440076e+02, 0.000000e+00, 5.548762e+01, 0.000000e+00, -1.381599e+02, -0.000000e+00
1290, 4, 3.440076e+02, 0.000000e+00, 5.548762e+01, 0.000000e+00, -1.381599e+02, -0.000000e+00
1290, 5, 3.440076e+02, 0.000000e+00, 5.548762e+01, 0.000000e+00, -1.381599e+02, -0.000000e+00
1290, 6, 3.440076e+02, 0.000000e+00, 5.548762e+01, 0.000000e+00, -1.381599e+02, -0.000000e+00
1290, 7, 3.440076e+02, 0.000000e+00, 5.548762e+01, 0.000000e+00, -1.381599e+02, -0.000000e+00
1290, 8, 3.440076e+02, 0.000000e+00, 5.548762e+01, 0.000000e+00, -1.381599e+02, -0.000000e+00
1291, 1, 3.443452e+02, 0.000000e+00, 5.475134e+01, 0.000000e+00, -1.373075e+02, -0.000000e+00
1291, 2, 3.443452e+02, 0.000000e+00, 5.475134e+01, 0.000000e+00, -1.373075e+02, -0.000000e+00
1291, 3, 3.443452e+02, 0.000000e+00, 5.475134e+01, 0.000000e+00, -1.373075e+02, -0.000000e+00
1291, 4, 3.443452e+02, 0.000000e+00, 5.475134e+01, 0.000000e+00, -1.373075e+02, -0.000000e+00
1291, 5, 3.443452e+02, 0.000000e+00, 5.475134e+01, 0.000000e+00, -1.373075e+02, -0.000000e+00
1291, 6, 3.443452e+02, 0.000000e+00, 5.475134e+01, 0.000000e+00, -1.373075e+02, -0.000000e+00
1291, 7, 3.443452e+02, 0.000000e+00, 5.475134e+01, 0.000000e+00, -1.373075e+02, -0.000000e+00
1291, 8, 3.443452e+02, 0.000000e+00, 5.475134e+01, 0.000000e+00, -1.373075e+02, -0.000000e+00
1292, 1, 3.446930e+02, 0.000000e+00, 5.400490e+01, 0.000000e+00, -1.364372e+02, -0.000000e+00
1292, 2, 3.446930e+02, 0.000000e+00, 5.400490e+01, 0.000000e+00, -1.364372e+02, -0.000000e+00
1292, 3, 3.446930e+02, 0.000000e+00, 5.400490e+01, 0.000000e+00, -1.364372e+02, -0.000000e+00
1292, 4, 3.446930e+02, 0.000000e+00, 5.400490e+01, 0.000000e+00, -1.364372e+02, -0.000000e+00
1292, 5, 3.446930e+02, 0.000000e+00, 5.400490e+01, 0.000000e+00, -1.364372e+02, -0.000000e+00
1292, 6, 3.446930e+02, 0.000000e+00, 5.400490e+01, 0.000000e+00, -1.364372e+02, -0.000000e+00
1292, 7, 3.446930e+02, 0.000000e+00, 5.400490e+01, 0.000000e+00, -1.364372e+02, -0.000000e+00
1292, 8, 3.446930e+02, 0.000000e+00, 5.400490e+01, 0.000000e+00, -1.364372e+02, -0.000000e+00
1293, 1, 3.450415e+02, 0.000000e+00, 5.326366e+01, 0.000000e+00, -1.355661e+02, -0.000000e+00
1293, 2, 3.450415e+02, 0.000000e+00, 5.326366e+01, 0.000000e+00, -1.355661e+02, -0.000000e+00
1293, 3, 3.450415e+02, 0.000000e+00, 5.326366e+01, 0.000000e+00, -1.355661e+02, -0.000000e+00
1293, 4, 3.450415e+02, 0.000000e+00, 5.326366e+01, 0.000000e+00, -1.355661e+02, -0.000000e+00
1293, 5, 3.450415e+02, 0.000000e+00, 5.326366e+01, 0.000000e+00, -1.355661e+02, -0.000000e+00
1293, 6, 3.450415e+02, 0.000000e+00, 5.326366e+01, 0.000000e+00, -1.355661e+02, -0.000000e+00
1293, 7, 3.450415e+02, 0.000000e+00, 5.326366e+01, 0.000000e+00, -1.355661e+02, -0.000000e+00
1293, 8, 3.450415e+02, 0.000000e+00, 5.326366e+01, 0.000000e+00, -1.355661e+02, -0.000000e+00
1294, 1, 3.453895e+02, 0.000000e+00, 5.251104e+01, 0.000000e+00, -1.346728e+02, -0.000000e+00
1294, 2, 3.453895e+02, 0.000000e+00, 5.251104e+01, 0.000000e+00, -1.346728e+02, -0.000000e+00
1294, 3, 3.453895e+02, 0.000000e+00, 5.251104e+01, 0.000000e+00, -1.346728e+02, -0.000000e+00
1294, 4, 3.453895e+02, 0.000000e+00, 5.251104e+01, 0.000000e+00, -1.346728e+02, -0.000000e+00
1294, 5, 3.453895e+02, 0.000000e+00, 5.251104e+01, 0.000000e+00, -1.346728e+02, -0.000000e+00
1294, 6, 3.453895e+02, 0.000000e+00, 5.251104e+01, 0.000000e+00, -1.346728e+02, -0.000000e+00
1294, 7, 3.453895e+02, 0.000000e+00, 5.251104e+01, 0.000000e+00, -1.346728e+02, -0.000000e+00
1294, 8, 3.453895e+02, 0.000000e+00, 5.251104e+01, 0.000000e+00, -1.346728e+02, -0.000000e+00
1295, 1, 3.464021e+02, 0.000000e+00, 5.033216e+01, 0.000000e+00, -1.320423e+02, -0.000000e+00
1295, 2, 3.464021e+02, 0.000000e+00, 5.033216e+01, 0.000000e+00, -1.320423e+02, -0.000000e+00
1295, 3, 3.464021e+02, 0.000000e+00, 5.033216e+01, 0.000000e+00, -1.320423e+02, -0.000000e+00
1295, 4, 3.464021e+02, 0.000000e+00, 5.033216e+01, 0.000000e+00, -1.320423e+02, -0.000000e+00
1295, 5, 3.464021e+02, 0.000000e+00, 5.033216e+01, 0.000000e+00, -1.320423e+02, -0.000000e+00
1295, 6, 3.464021e+02, 0.000000e+00, 5.033216e+01, 0.000000e+00, -1.320423e+02, -0.000000e+00
1295, 7, 3.464021e+02, 0.000000e+00, 5.033216e+01, 0.000000e+00, -1.320423e+02, -0.000000e+00
1295, 8, 3.464021e+02, 0.000000e+00, 5.033216e+01, 0.000000e+00, -1.320423e+02, -0.000000e+00
1296, 1, 3.467300e+02, 0.000000e+00, 4.962941e+01, 0.000000e+00, -1.311793e+02, -0.000000e+00
1296, 2, 3.467300e+02, 0.000000e+00, 4.962941e+01, 0.000000e+00, -1.311793e+02, -0.000000e+00
1296, 3, 3.467300e+02, 0.000000e+00, 4.962941e+01, 0.000000e+00, -1.311793e+02, -0.000000e+00
1296, 4, 3.467300e+02, 0.000000e+00, 4.962941e+01, 0.000000e+00, -1.311793e+02, -0.000000e+00
1296, 5, 3.467300e+02, 0.000000e+00, 4.962941e+01, 0.000000e+00, -1.311793e+02, -0.000000e+00
1296, 6, 3.467300e+02, 0.000000e+00, 4.962941e+01, 0.000000e+00, -1.311793e+02, -0.000000e+00
1296, 7, 3.467300e+02, 0.000000e+00, 4.962941e+01, 0.000000e+00, -1.311793e+02, -0.000000e+00
1296, 8, 3.467300e+02, 0.000000e+00, 4.962941e+01, 0.000000e+00, -1.311793e+02, -0.000000e+00
1297, 1, 3.470622e+02, 0.000000e+00, 4.891640e+01, 0.000000e+00, -1.302959e+02, -0.000000e+00
1297, 2, 3.470622e+02, 0.000000e+00, 4.891640e+01, 0.000000e+00, -1.302959e+02, -0.000000e+00
1297, 3, 3.470622e+02, 0.000000e+00, 4.891640e+01, 0.000000e+00, -1.302959e+02, -0.000000e+00
1297, 4, 3.470622e+02, 0.000000e+00, 4.891640e+01, 0.000000e+00, -1.302959e+02, -0.000000e+00
1297, 5, 3.470622e+02, 0.000000e+00, 4.891640e+01, 0.000000e+00, -1.302959e+02, -0.000000e+00
1297, 6, 3.470622e+02, 0.000000e+00, 4.891640e+01, 0.000000e+00, -1.302959e+02, -0.000000e+00
1297, 7, 3.470622e+02, 0.000000e+00, 4.891640e+01, 0.000000e+00, -1.302959e+02, -0.000000e+00
1297, 8, 3.470622e+02, 0.000000e+00, 4.891640e+01, 0.000000e+00, -1.302959e+02, -0.000000e+00
1298, 1, 3.473951e+02, 0.000000e+00, 4.820862e+01, 0.000000e+00, -1.294119e+02, -0.000000e+00
1298, 2, 3.473951e+02, 0.000000e+00, 4.820862e+01, 0.000000e+00, -1.294119e+02, -0.000000e+00
1298, 3, 3.473951e+02, 0.000000e+00, 4.820862e+01, 0.000000e+00, -1.294119e+02, -0.000000e+00
1298, 4, 3.473951e+02, 0.000000e+00, 4.820862e+01, 0.000000e+00, -1.294119e+02, -0.000000e+00
1298, 5, 3.473951e+02, 0.000000e+00, 4.820862e+01, 0.000000e+00, -1.294119e+02, -0.000000e+00
1298, 6, 3.473951e+02, 0.000000e+00, 4.820862e+01, 0.000000e+00, -1.294119e+02, -0.000000e+00
1298, 7, 3.473951e+02, 0.000000e+00, 4.820862e+01, 0.000000e+00, -1.294119e+02, -0.000000e+00
1298, 8, 3.473951e+02, 0.000000e+00, 4.820862e+01, 0.000000e+00, -1.294119e+02, -0.000000e+00
1299, 1, 3.477319e+02, 0.000000e+00, 4.749098e+01, 0.000000e+00, -1.285073e+02, -0.000000e+00
1299, 2, 3.477319e+02, 0.000000e+00, 4.749098e+01, 0.000000e+00, -1.285073e+02, -0.000000e+00
1299, 3, 3.477319e+02, 0.000000e+00, 4.749098e+01, 0.000000e+00, -1.285073e+02, -0.000000e+00
1299, 4, 3.477319e+02, 0.000000e+00, 4.749098e+01, 0.000000e+00, -1.285073e+02, -0.000000e+00
1299, 5, 3.477319e+02, 0.000000e+00, 4.749098e+01, 0.000000e+00, -1.285073e+02, -0.000000e+00
1299, 6, 3.477319e+02, 0.000000e+00, 4.749098e+01, 0.000000e+00, -1.285073e+02, -0.000000e+00
1299, 7, 3.477319e+02, 0.000000e+00, 4.749098e+01, 0.000000e+00, -1.285073e+02, -0.000000e+00
1299, 8, 3.477319e+02, 0.000000e+00, 4.749098e+01, 0.000000e+00, -1.285073e+02, -0.000000e+00
1300, 1, 3.488296e+02, 0.000000e+00, 4.514374e+01, 0.000000e+00, -1.254889e+02, -0.000000e+00
1300, 2, 3.488296e+02, 0.000000e+00, 4.514374e+01, 0.000000e+00, -1.254889e+02, -0.000000e+00
1300, 3, 3.488296e+02, 0.000000e+00, 4.514374e+01, 0.000000e+00, -1.254889e+02, -0.000000e+00
1300, 4, 3.488296e+02, 0.000000e+00, 4.514374e+01, 0.000000e+00, -1.254889e+02, -0.000000e+00
1300, 5, 3.488296e+02, 0.000000e+00, 4.514374e+01, 0.000000e+00, -1.254889e+02, -0.000000e+00
1300, 6, 3.488296e+02, 0.000000e+00, 4.514374e+01, 0.000000e+00, -1.254889e+02, -0.000000e+00
1300, 7, 3.488296e+02, 0.000000e+00, 4.514374e+01, 0.000000e+00, -1.254889e+02, -0.000000e+00
1300, 8, 3.488296e+02, 0.000000e+00, 4.514374e+01, 0.000000e+00, -1.254889e+02, -0.000000e+00
1301, 1, 3.491457e+02, 0.000000e+00, 4.447659e+01, 0.000000e+00, -1.246146e+02, -0.000000e+00
1301, 2, 3.491457e+02, 0.000000e+00, 4.447659e+01, 0.000000e+00, -1.246146e+02, -0.000000e+00
1301, 3, 3.491457e+02, 0.000000e+00, 4.447659e+01, 0.000000e+00, -1.246146e+02, -0.000000e+00
1301, 4, 3.491457e+02, 0.000000e+00, 4.447659e+01, 0.000000e+00, -1.246146e+02, -0.000000e+00
1301, 5, 3.491457e+02, 0.000000e+00, 4.447659e+01, 0.000000e+00, -1.246146e+02, -0.000000e+00
1301, 6, 3.491457e+02, 0.000000e+00, 4.447659e+01, 0.000000e+00, -1.246146e+02, -0.000000e+00
1301, 7, 3.491457e+02, 0.000000e+00, 4.447659e+01, 0.000000e+00, -1.246146e+02, -0.000000e+00
1301, 8, 3.491457e+02, 0.000000e+00, 4.447659e+01, 0.000000e+00, -1.246146e+02, -0.000000e+00
1302, 1, 3.494653e+02, 0.000000e+00, 4.379995e+01, 0.000000e+00, -1.237197e+02, -0.000000e+00
1302, 2, 3.494653e+02, 0.000000e+00, 4.379995e+01, 0.000000e+00, -1.237197e+02, -0.000000e+00
1302, 3, 3.494653e+02, 0.000000e+00, 4.379995e+01, 0.000000e+00, -1.237197e+02, -0.000000e+00
1302, 4, 3.494653e+02, 0.000000e+00, 4.379995e+01, 0.000000e+00, -1.237197e+02, -0.000000e+00
1302, 5, 3.494653e+02, 0.000000e+00, 4.379995e+01, 0.000000e+00, -1.237197e+02, -0.000000e+00
1302, 6, 3.494653e+02, 0.000000e+00, 4.379995e+01, 0.000000e+00, -1.237197e+02, -0.000000e+00
1302, 7, 3.494653e+02, 0.000000e+00, 4.379995e+01, 0.000000e+00, -1.237197e+02, -0.000000e+00
1302, 8, 3.494653e+02, 0.000000e+00, 4.379995e+01, 0.000000e+00, -1.237197e+02, -0.000000e+00
1303, 1, 3.497803e+02, 0.000000e+00, 4.312790e+01, 0.000000e+00, -1.228222e+02, -0.000000e+00
1303, 2, 3.497803e+02, 0.000000e+00, 4.312790e+01, 0.000000e+00, -1.228222e+02, -0.000000e+00
1303, 3, 3.497803e+02, 0.000000e+00, 4.312790e+01, 0.000000e+00, -1.228222e+02, -0.000000e+00
1303, 4, 3.497803e+02, 0.000000e+00, 4.312790e+01, 0.000000e+00, -1.228222e+02, -0.000000e+00
1303, 5, 3.497803e+02, 0.000000e+00, 4.312790e+01, 0.000000e+00, -1.228222e+02, -0.000000e+00
1303, 6, 3.497803e+02, 0.000000e+00, 4.312790e+01, 0.000000e+00, -1.228222e+02, -0.000000e+00
1303, 7, 3.497803e+02, 0.000000e+00, 4.312790e+01, 0.000000e+00, -1.228222e+02, -0.000000e+00
1303, 8, 3.497803e+02, 0.000000e+00, 4.312790e+01, 0.000000e+00, -1.228222e+02, -0.000000e+00
1304, 1, 3.500985e+02, 0.000000e+00, 4.244678e+01, 0.000000e+00, -1.219039e+02, -0.000000e+00
1304, 2, 3.500985e+02, 0.000000e+00, 4.244678e+01, 0.000000e+00, -1.219039e+02, -0.000000e+00
1304, 3, 3.500985e+02, 0.000000e+00, 4.244678e+01, 0.000000e+00, -1.219039e+02, -0.000000e+00
1304, 4, 3.500985e+02, 0.000000e+00, 4.244678e+01, 0.000000e+00, -1.219039e+02, -0.000000e+00
1304, 5, 3.500985e+02, 0.000000e+00, 4.244678e+01, 0.000000e+00, -1.219039e+02, -0.000000e+00
1304, 6, 3.500985e+02, 0.000000e+00, 4.244678e+01, 0.000000e+00, -1.219039e+02, -0.000000e+00
1304, 7, 3.500985e+02, 0.000000e+00, 4.244678e+01, 0.000000e+00, -1.219039e+02, -0.000000e+00
1304, 8, 3.500985e+02, 0.000000e+00, 4.244678e+01, 0.000000e+00, -1.219039e+02, -0.000000e+00
1305, 1, 3.510365e+02, 0.000000e+00, 4.046149e+01, 0.000000e+00, -1.191783e+02, -0.000000e+00
1305, 2, 3.510365e+02, 0.000000e+00, 4.046149e+01, 0.000000e+00, -1.191783e+02, -0.000000e+00
1305, 3, 3.510365e+02, 0.000000e+00, 4.046149e+01, 0.000000e+00, -1.191783e+02, -0.000000e+00
1305, 4, 3.510365e+02, 0.000000e+00, 4.046149e+01, 0.000000e+00, -1.191783e+02, -0.000000e+00
1305, 5, 3.510365e+02, 0.000000e+00, 4.046149e+01, 0.000000e+00, -1.191783e+02, -0.000000e+00
1305, 6, 3.510365e+02, 0.000000e+00, 4.046149e+01, 0.000000e+00, -1.191783e+02, -0.000000e+00
1305, 7, 3.510365e+02, 0.000000e+00, 4.046149e+01, 0.000000e+00, -1.191783e+02, -0.000000e+00
1305, 8, 3.510365e+02, 0.000000e+00, 4.046149e+01, 0.000000e+00, -1.191783e+02, -0.000000e+00
1306, 1, 3.513368e+02, 0.000000e+00, 3.982802e+01, 0.000000e+00, -1.182922e+02, -0.000000e+00
1306, 2, 3.513368e+02, 0.000000e+00, 3.982802e+01, 0.000000e+00, -1.182922e+02, -0.000000e+00
1306, 3, 3.513368e+02, 0.000000e+00, 3.982802e+01, 0.000000e+00, -1.182922e+02, -0.000000e+00
1306, 4, 3.513368e+02, 0.000000e+00, 3.982802e+01, 0.000000e+00, -1.182922e+02, -0.000000e+00
1306, 5, 3.513368e+02, 0.000000e+00, 3.982802e+01, 0.000000e+00, -1.182922e+02, -0.000000e+00
1306, 6, 3.513368e+02, 0.000000e+00, 3.982802e+01, 0.000000e+00, -1.182922e+02, -0.000000e+00
1306, 7, 3.513368e+02, 0.000000e+00, 3.982802e+01, 0.000000e+00, -1.182922e+02, -0.000000e+00
1306, 8, 3.513368e+02, 0.000000e+00, 3.982802e+01, 0.000000e+00, -1.182922e+02, -0.000000e+00
1307, 1, 3.516398e+02, 0.000000e+00, 3.918582e+01, 0.000000e+00, -1.173852e+02, -0.000000e+00
1307, 2, 3.516398e+02, 0.000000e+00, 3.918582e+01, 0.000000e+00, -1.173852e+02, -0.000000e+00
1307, 3, 3.516398e+02, 0.000000e+00, 3.918582e+01, 0.000000e+00, -1.173852e+02, -0.000000e+00
1307, 4, 3.516398e+02, 0.000000e+00, 3.918582e+01, 0.000000e+00, -1.173852e+02, -0.000000e+00
1307, 5, 3.516398e+02, 0.000000e+00, 3.918582e+01, 0.000000e+00, -1.173852e+02, -0.000000e+00
1307, 6, 3.516398e+02, 0.000000e+00, 3.918582e+01, 0.000000e+00, -1.173852e+02, -0.000000e+00
1307, 7, 3.516398e+02, 0.000000e+00, 3.918582e+01, 0.000000e+00, -1.173852e+02, -0.000000e+00
1307, 8, 3.516398e+02, 0.000000e+00, 3.918582e+01, 0.000000e+00, -1.173852e+02, -0.000000e+00
1308, 1, 3.519435e+02, 0.000000e+00, 3.854888e+01, 0.000000e+00, -1.164776e+02, -0.000000e+00
1308, 2, 3.519435e+02, 0.000000e+00, 3.854888e+01, 0.000000e+00, -1.164776e+02, -0.000000e+00
1308, 3, 3.519435e+02, 0.000000e+00, 3.854888e+01, 0.000000e+00, -1.164776e+02, -0.000000e+00
1308, 4, 3.519435e+02, 0.000000e+00, 3.854888e+01, 0.000000e+00, -1.164776e+02, -0.000000e+00
1308, 5, 3.519435e+02, 0.000000e+00, 3.854888e+01, 0.000000e+00, -1.164776e+02, -0.000000e+00
1308, 6, 3.519435e+02, 0.000000e+00, 3.854888e+01, 0.000000e+00, -1.164776e+02, -0.000000e+00
1308, 7, 3.519435e+02, 0.000000e+00, 3.854888e+01, 0.000000e+00, -1.164776e+02, -0.000000e+00
1308, 8, 3.519435e+02, 0.000000e+00, 3.854888e+01, 0.000000e+00, -1.164776e+02, -0.000000e+00
1309, 1, 3.522496e+02, 0.000000e+00, 3.790362e+01, 0.000000e+00, -1.155489e+02, -0.000000e+00
1309, 2, 3.522496e+02, 0.000000e+00, 3.790362e+01, 0.000000e+00, -1.155489e+02, -0.000000e+00
1309, 3, 3.522496e+02, 0.000000e+00, 3.790362e+01, 0.000000e+00, -1.155489e+02, -0.000000e+00
1309, 4, 3.522496e+02, 0.000000e+00, 3.790362e+01, 0.000000e+00, -1.155489e+02, -0.000000e+00
1309, 5, 3.522496e+02, 0.000000e+00, 3.790362e+01, 0.000000e+00, -1.155489e+02, -0.000000e+00
1309, 6, 3.522496e+02, 0.000000e+00, 3.790362e+01, 0.000000e+00, -1.155489e+02, -0.000000e+00
1309, 7, 3.522496e+02, 0.000000e+00, 3.790362e+01, 0.000000e+00, -1.155489e+02, -0.000000e+00
1309, 8, 3.522496e+02, 0.000000e+00, 3.790362e+01, 0.000000e+00, -1.155489e+02, -0.000000e+00
1310, 1, 3.531436e+02, 0.000000e+00, 3.601596e+01, 0.000000e+00, -1.127777e+02, -0.000000e+00
1310, 2, 3.531436e+02, 0.000000e+00, 3.601596e+01, 0.000000e+00, -1.127777e+02, -0.000000e+00
1310, 3, 3.531436e+02, 0.000000e+00, 3.601596e+01, 0.000000e+00, -1.127777e+02, -0.000000e+00
1310, 4, 3.531436e+02, 0.000000e+00, 3.601596e+01, 0.000000e+00, -1.127777e+02, -0.000000e+00
1310, 5, 3.531436e+02, 0.000000e+00, 3.601596e+01, 0.000000e+00, -1.127777e+02, -0.000000e+00
1310, 6, 3.531436e+02, 0.000000e+00, 3.601596e+01, 0.000000e+00, -1.127777e+02, -0.000000e+00
1310, 7, 3.531436e+02, 0.000000e+00, 3.601596e+01, 0.000000e+00, -1.127777e+02, -0.000000e+00
1310, 8, 3.531436e+02, 0.000000e+00, 3.601596e+01, 0.000000e+00, -1.127777e+02, -0.000000e+00
1311, 1, 3.534276e+02, 0.000000e+00, 3.541665e+01, 0.000000e+00, -1.118804e+02, -0.000000e+00
1311, 2, 3.534276e+02, 0.000000e+00, 3.541665e+01, 0.000000e+00, -1.118804e+02, -0.000000e+00
1311, 3, 3.534276e+02, 0.000000e+00, 3.541665e+01, 0.000000e+00, -1.118804e+02, -0.000000e+00
1311, 4, 3.534276e+02, 0.000000e+00, 3.541665e+01, 0.000000e+00, -1.118804e+02, -0.000000e+00
1311, 5, 3.534276e+02, 0.000000e+00, 3.541665e+01, 0.000000e+00, -1.118804e+02, -0.000000e+00
1311, 6, 3.534276e+02, 0.000000e+00, 3.541665e+01, 0.000000e+00, -1.118804e+02, -0.000000e+00
1311, 7, 3.534276e+02, 0.000000e+00, 3.541665e+01, 0.000000e+00, -1.118804e+02, -0.000000e+00
1311, 8, 3.534276e+02, 0.000000e+00, 3.541665e+01, 0.000000e+00, -1.118804e+02, -0.000000e+00
1312, 1, 3.537189e+02, 0.000000e+00, 3.480990e+01, 0.000000e+00, -1.109636e+02, -0.000000e+00
1312, 2, 3.537189e+02, 0.000000e+00, 3.480990e+01, 0.000000e+00, -1.109636e+02, -0.000000e+00
1312, 3, 3.537189e+02, 0.000000e+00, 3.480990e+01, 0.000000e+00, -1.109636e+02, -0.000000e+00
1312, 4, 3.537189e+02, 0.000000e+00, 3.480990e+01, 0.000000e+00, -1.109636e+02, -0.000000e+00
1312, 5, 3.537189e+02, 0.000000e+00, 3.480990e+01, 0.000000e+00, -1.109636e+02, -0.000000e+00
1312, 6, 3.537189e+02, 0.000000e+00, 3.480990e+01, 0.000000e+00, -1.109636e+02, -0.000000e+00
1312, 7, 3.537189e+02, 0.000000e+00, 3.480990e+01, 0.000000e+00, -1.109636e+02, -0.000000e+00
1312, 8, 3.537189e+02, 0.000000e+00, 3.480990e+01, 0.000000e+00, -1.109636e+02, -0.000000e+00
1313, 1, 3.540056e+02, 0.000000e+00, 3.420792e+01, 0.000000e+00, -1.100445e+02, -0.000000e+00
1313, 2, 3.540056e+02, 0.000000e+00, 3.420792e+01, 0.000000e+00, -1.100445e+02, -0.000000e+00
1313, 3, 3.540056e+02, 0.000000e+00, 3.420792e+01, 0.000000e+00, -1.100445e+02, -0.000000e+00
1313, 4, 3.540056e+02, 0.000000e+00, 3.420792e+01, 0.000000e+00, -1.100445e+02, -0.000000e+00
1313, 5, 3.540056e+02, 0.000000e+00, 3.420792e+01, 0.000000e+00, -1.100445e+02, -0.000000e+00
1313, 6, 3.540056e+02, 0.000000e+00, 3.420792e+01, 0.000000e+00, -1.100445e+02, -0.000000e+00
1313, 7, 3.540056e+02, 0.000000e+00, 3.420792e+01, 0.000000e+00, -1.100445e+02, -0.000000e+00
1313, 8, 3.540056e+02, 0.000000e+00, 3.420792e+01, 0.000000e+00, -1.100445e+02, -0.000000e+00
1314, 1, 3.542938e+02, 0.000000e+00, 3.359838e+01, 0.000000e+00, -1.091041e+02, -0.000000e+00
1314, 2, 3.542938e+02, 0.000000e+00, 3.359838e+01, 0.000000e+00, -1.091041e+02, -0.000000e+00
1314, 3, 3.542938e+02, 0.000000e+00, 3.359838e+01, 0.000000e+00, -1.091041e+02, -0.000000e+00
1314, 4, 3.542938e+02, 0.000000e+00, 3.359838e+01, 0.000000e+00, -1.091041e+02, -0.000000e+00
1314, 5, 3.542938e+02, 0.000000e+00, 3.359838e+01, 0.000000e+00, -1.091041e+02, -0.000000e+00
1314, 6, 3.542938e+02, 0.000000e+00, 3.359838e+01, 0.000000e+00, -1.091041e+02, -0.000000e+00
1314, 7, 3.542938e+02, 0.000000e+00, 3.359838e+01, 0.000000e+00, -1.091041e+02, -0.000000e+00
1314, 8, 3.542938e+02, 0.000000e+00, 3.359838e+01, 0.000000e+00, -1.091041e+02, -0.000000e+00
1315, 1, 3.552574e+02, 0.000000e+00, 3.158749e+01, 0.000000e+00, -1.059325e+02, -0.000000e+00
1315, 2, 3.552574e+02, 0.000000e+00, 3.158749e+01, 0.000000e+00, -1.059325e+02, -0.000000e+00
1315, 3, 3.552574e+02, 0.000000e+00, 3.158749e+01, 0.000000e+00, -1.059325e+02, -0.000000e+00
1315, 4, 3.552574e+02, 0.000000e+00, 3.158749e+01, 0.000000e+00, -1.059325e+02, -0.000000e+00
1315, 5, 3.552574e+02, 0.000000e+00, 3.158749e+01, 0.000000e+00, -1.059325e+02, -0.000000e+00
1315, 6, 3.552574e+02, 0.000000e+00, 3.158749e+01, 0.000000e+00, -1.059325e+02, -0.000000e+00
1315, 7, 3.552574e+02, 0.000000e+00, 3.158749e+01, 0.000000e+00, -1.059325e+02, -0.000000e+00
1315, 8, 3.552574e+02, 0.000000e+00, 3.158749e+01, 0.000000e+00, -1.059325e+02, -0.000000e+00
1316, 1, 3.555228e+02, 0.000000e+00, 3.102463e+01, 0.000000e+00, -1.050236e+02, -0.000000e+00
1316, 2, 3.555228e+02, 0.000000e+00, 3.102463e+01, 0.000000e+00, -1.050236e+02, -0.000000e+00
1316, 3, 3.555228e+02, 0.000000e+00, 3.102463e+01, 0.000000e+00, -1.050236e+02, -0.000000e+00
1316, 4, 3.555228e+02, 0.000000e+00, 3.102463e+01, 0.000000e+00, -1.050236e+02, -0.000000e+00
1316, 5, 3.555228e+02, 0.000000e+00, 3.102463e+01, 0.000000e+00, -1.050236e+02, -0.000000e+00
1316, 6, 3.555228e+02, 0.000000e+00, 3.102463e+01, 0.000000e+00, -1.050236e+02, -0.000000e+00
1316, 7, 3.555228e+02, 0.000000e+00, 3.102463e+01, 0.000000e+00, -1.050236e+02, -0.000000e+00
1316, 8, 3.555228e+02, 0.000000e+00, 3.102463e+01, 0.000000e+00, -1.050236e+02, -0.000000e+00
1317, 1, 3.558003e+02, 0.000000e+00, 3.045558e+01, 0.000000e+00, -1.040966e+02, -0.000000e+00
1317, 2, 3.558003e+02, 0.000000e+00, 3.045558e+01, 0.000000e+00, -1.040966e+02, -0.000000e+00
1317, 3, 3.558003e+02, 0.000000e+00, 3.045558e+01, 0.000000e+00, -1.040966e+02, -0.000000e+00
1317, 4, 3.558003e+02, 0.000000e+00, 3.045558e+01, 0.000000e+00, -1.040966e+02, -0.000000e+00
1317, 5, 3.558003e+02, 0.000000e+00, 3.045558e+01, 0.000000e+00, -1.040966e+02, -0.000000e+00
1317, 6, 3.558003e+02, 0.000000e+00, 3.045558e+01, 0.000000e+00, -1.040966e+02, -0.000000e+00
1317, 7, 3.558003e+02, 0.000000e+00, 3.045558e+01, 0.000000e+00, -1.040966e+02, -0.000000e+00
1317, 8, 3.558003e+02, 0.000000e+00, 3.045558e+01, 0.000000e+00, -1.040966e+02, -0.000000e+00
1318, 1, 3.560729e+02, 0.000000e+00, 2.989136e+01, 0.000000e+00, -1.031674e+02, -0.000000e+00
1318, 2, 3.560729e+02, 0.000000e+00, 2.989136e+01, 0.000000e+00, -1.031674e+02, -0.000000e+00
1318, 3, 3.560729e+02, 0.000000e+00, 2.989136e+01, 0.000000e+00, -1.031674e+02, -0.000000e+00
1318, 4, 3.560729e+02, 0.000000e+00, 2.989136e+01, 0.000000e+00, -1.031674e+02, -0.000000e+00
1318, 5, 3.560729e+02, 0.000000e+00, 2.989136e+01, 0.000000e+00, -1.031674e+02, -0.000000e+00
1318, 6, 3.560729e+02, 0.000000e+00, 2.989136e+01, 0.000000e+00, -1.031674e+02, -0.000000e+00
1318, 7, 3.560729e+02, 0.000000e+00, 2.989136e+01, 0.000000e+00, -1.031674e+02, -0.000000e+00
1318, 8, 3.560729e+02, 0.000000e+00, 2.989136e+01, 0.000000e+00, -1.031674e+02, -0.000000e+00
1319, 1, 3.563463e+02, 0.000000e+00, 2.932041e+01, 0.000000e+00, -1.022165e+02, -0.000000e+00
1319, 2, 3.563463e+02, 0.000000e+00, 2.932041e+01, 0.000000e+00, -1.022165e+02, -0.000000e+00
1319, 3, 3.563463e+02, 0.000000e+00, 2.932041e+01, 0.000000e+00, -1.022165e+02, -0.000000e+00
1319, 4, 3.563463e+02, 0.000000e+00, 2.932041e+01, 0.000000e+00, -1.022165e+02, -0.000000e+00
1319, 5, 3.563463e+02, 0.000000e+00, 2.932041e+01, 0.000000e+00, -1.022165e+02, -0.000000e+00
1319, 6, 3.563463e+02, 0.000000e+00, 2.932041e+01, 0.000000e+00, -1.022165e+02, -0.000000e+00
1319, 7, 3.563463e+02, 0.000000e+00, 2.932041e+01, 0.000000e+00, -1.022165e+02, -0.000000e+00
1319, 8, 3.563463e+02, 0.000000e+00, 2.932041e+01, 0.000000e+00, -1.022165e+02, -0.000000e+00
1320, 1, 3.571502e+02, 0.000000e+00, 2.764190e+01, 0.000000e+00, -9.935950e+01, -0.000000e+00
1320, 2, 3.571502e+02, 0.000000e+00, 2.764190e+01, 0.000000e+00, -9.935950e+01, -0.000000e+00
1320, 3, 3.571502e+02, 0.000000e+00, 2.764190e+01, 0.000000e+00, -9.935950e+01, -0.000000e+00
1320, 4, 3.571502e+02, 0.000000e+00, 2.764190e+01, 0.000000e+00, -9.935950e+01, -0.000000e+00
1320, 5, 3.571502e+02, 0.000000e+00, 2.764190e+01, 0.000000e+00, -9.935950e+01, -0.000000e+00
1320, 6, 3.571502e+02, 0.000000e+00, 2.764190e+01, 0.000000e+00, -9.935950e+01, -0.000000e+00
1320, 7, 3.571502e+02, 0.000000e+00, 2.764190e+01, 0.000000e+00, -9.935950e+01, -0.000000e+00
1320, 8, 3.571502e+02, 0.000000e+00, 2.764190e+01, 0.000000e+00, -9.935950e+01, -0.000000e+00
1321, 1, 3.574038e+02, 0.000000e+00, 2.711456e+01, 0.000000e+00, -9.844209e+01, -0.000000e+00
1321, 2, 3.574038e+02, 0.000000e+00, 2.711456e+01, 0.000000e+00, -9.844209e+01, -0.000000e+00
1321, 3, 3.574038e+02, 0.000000e+00, 2.711456e+01, 0.000000e+00, -9.844209e+01, -0.000000e+00
1321, 4, 3.574038e+02, 0.000000e+00, 2.711456e+01, 0.000000e+00, -9.844209e+01, -0.000000e+00
1321, 5, 3.574038e+02, 0.000000e+00, 2.711456e+01, 0.000000e+00, -9.844209e+01, -0.000000e+00
1321, 6, 3.574038e+02, 0.000000e+00, 2.711456e+01, 0.000000e+00, -9.844209e+01, -0.000000e+00
1321, 7, 3.574038e+02, 0.000000e+00, 2.711456e+01, 0.000000e+00, -9.844209e+01, -0.000000e+00
1321, 8, 3.574038e+02, 0.000000e+00, 2.711456e+01, 0.000000e+00, -9.844209e+01, -0.000000e+00
1322, 1, 3.576578e+02, 0.000000e+00, 2.658085e+01, 0.000000e+00, -9.750308e+01, -0.000000e+00
1322, 2, 3.576578e+02, 0.000000e+00, 2.658085e+01, 0.000000e+00, -9.750308e+01, -0.000000e+00
1322, 3, 3.576578e+02, 0.000000e+00, 2.658085e+01, 0.000000e+00, -9.750308e+01, -0.000000e+00
1322, 4, 3.576578e+02, 0.000000e+00, 2.658085e+01, 0.000000e+00, -9.750308e+01, -0.000000e+00
1322, 5, 3.576578e+02, 0.000000e+00, 2.658085e+01, 0.000000e+00, -9.750308e+01, -0.000000e+00
1322, 6, 3.576578e+02, 0.000000e+00, 2.658085e+01, 0.000000e+00, -9.750308e+01, -0.000000e+00
1322, 7, 3.576578e+02, 0.000000e+00, 2.658085e+01, 0.000000e+00, -9.750308e+01, -0.000000e+00
1322, 8, 3.576578e+02, 0.000000e+00, 2.658085e+01, 0.000000e+00, -9.750308e+01, -0.000000e+00
1323, 1, 3.579125e+02, 0.000000e+00, 2.605249e+01, 0.000000e+00, -9.656352e+01, -0.000000e+00
1323, 2, 3.579125e+02, 0.000000e+00, 2.605249e+01, 0.000000e+00, -9.656352e+01, -0.000000e+00
1323, 3, 3.579125e+02, 0.000000e+00, 2.605249e+01, 0.000000e+00, -9.656352e+01, -0.000000e+00
1323, 4, 3.579125e+02, 0.000000e+00, 2.605249e+01, 0.000000e+00, -9.656352e+01, -0.000000e+00
1323, 5, 3.579125e+02, 0.000000e+00, 2.605249e+01, 0.000000e+00, -9.656352e+01, -0.000000e+00
1323, 6, 3.579125e+02, 0.000000e+00, 2.605249e+01, 0.000000e+00, -9.656352e+01, -0.000000e+00
1323, 7, 3.579125e+02, 0.000000e+00, 2.605249e+01, 0.000000e+00, -9.656352e+01, -0.000000e+00
1323, 8, 3.579125e+02, 0.000000e+00, 2.605249e+01, 0.000000e+00, -9.656352e+01, -0.000000e+00
1324, 1, 3.581727e+02, 0.000000e+00, 2.551860e+01, 0.000000e+00, -9.560370e+01, -0.000000e+00
1324, 2, 3.581727e+02, 0.000000e+00, 2.551860e+01, 0.000000e+00, -9.560370e+01, -0.000000e+00
1324, 3, 3.581727e+02, 0.000000e+00, 2.551860e+01, 0.000000e+00, -9.560370e+01, -0.000000e+00
1324, 4, 3.581727e+02, 0.000000e+00, 2.551860e+01, 0.000000e+00, -9.560370e+01, -0.000000e+00
1324, 5, 3.581727e+02, 0.000000e+00, 2.551860e+01, 0.000000e+00, -9.560370e+01, -0.000000e+00
1324, 6, 3.581727e+02, 0.000000e+00, 2.551860e+01, 0.000000e+00, -9.560370e+01, -0.000000e+00
1324, 7, 3.581727e+02, 0.000000e+00, 2.551860e+01, 0.000000e+00, -9.560370e+01, -0.000000e+00
1324, 8, 3.581727e+02, 0.000000e+00, 2.551860e+01, 0.000000e+00, -9.560370e+01, -0.000000e+00
1325, 1, 3.589361e+02, 0.000000e+00, 2.394591e+01, 0.000000e+00, -9.270951e+01, -0.000000e+00
1325, 2, 3.589361e+02, 0.000000e+00, 2.394591e+01, 0.000000e+00, -9.270951e+01, -0.000000e+00
1325, 3, 3.589361e+02, 0.000000e+00, 2.394591e+01, 0.000000e+00, -9.270951e+01, -0.000000e+00
1325, 4, 3.589361e+02, 0.000000e+00, 2.394591e+01, 0.000000e+00, -9.270951e+01, -0.000000e+00
1325, 5, 3.589361e+02, 0.000000e+00, 2.394591e+01, 0.000000e+00, -9.270951e+01, -0.000000e+00
1325, 6, 3.589361e+02, 0.000000e+00, 2.394591e+01, 0.000000e+00, -9.270951e+01, -0.000000e+00
1325, 7, 3.589361e+02, 0.000000e+00, 2.394591e+01, 0.000000e+00, -9.270951e+01, -0.000000e+00
1325, 8, 3.589361e+02, 0.000000e+00, 2.394591e+01, 0.000000e+00, -9.270951e+01, -0.000000e+00
1326, 1, 3.591722e+02, 0.000000e+00, 2.345402e+01, 0.000000e+00, -9.178252e+01, -0.000000e+00
1326, 2, 3.591722e+02, 0.000000e+00, 2.345402e+01, 0.000000e+00, -9.178252e+01, -0.000000e+00
1326, 3, 3.591722e+02, 0.000000e+00, 2.345402e+01, 0.000000e+00, -9.178252e+01, -0.000000e+00
1326, 4, 3.591722e+02, 0.000000e+00, 2.345402e+01, 0.000000e+00, -9.178252e+01, -0.000000e+00
1326, 5, 3.591722e+02, 0.000000e+00, 2.345402e+01, 0.000000e+00, -9.178252e+01, -0.000000e+00
1326, 6, 3.591722e+02, 0.000000e+00, 2.345402e+01, 0.000000e+00, -9.178252e+01, -0.000000e+00
1326, 7, 3.591722e+02, 0.000000e+00, 2.345402e+01, 0.000000e+00, -9.178252e+01, -0.000000e+00
1326, 8, 3.591722e+02, 0.000000e+00, 2.345402e+01, 0.000000e+00, -9.178252e+01, -0.000000e+00
1327, 1, 3.594134e+02, 0.000000e+00, 2.295693e+01, 0.000000e+00, -9.083518e+01, -0.000000e+00
1327, 2, 3.594134e+02, 0.000000e+00, 2.295693e+01, 0.000000e+00, -9.083518e+01, -0.000000e+00
1327, 3, 3.594134e+02, 0.000000e+00, 2.295693e+01, 0.000000e+00, -9.083518e+01, -0.000000e+00
1327, 4, 3.594134e+02, 0.000000e+00, 2.295693e+01, 0.000000e+00, -9.083518e+01, -0.000000e+00
1327, 5, 3.594134e+02, 0.000000e+00, 2.295693e+01, 0.000000e+00, -9.083518e+01, -0.000000e+00
1327, 6, 3.594134e+02, 0.000000e+00, 2.295693e+01, 0.000000e+00, -9.083518e+01, -0.000000e+00
1327, 7, 3.594134e+02, 0.000000e+00, 2.295693e+01, 0.000000e+00, -9.083518e+01, -0.000000e+00
1327, 8, 3.594134e+02, 0.000000e+00, 2.295693e+01, 0.000000e+00, -9.083518e+01, -0.000000e+00
1328, 1, 3.596552e+02, 0.000000e+00, 2.246520e+01, 0.000000e+00, -8.988730e+01, -0.000000e+00
1328, 2, 3.596552e+02, 0.000000e+00, 2.246520e+01, 0.000000e+00, -8.988730e+01, -0.000000e+00
1328, 3, 3.596552e+02, 0.000000e+00, 2.246520e+01, 0.000000e+00, -8.988730e+01, -0.000000e+00
1328, 4, 3.596552e+02, 0.000000e+00, 2.246520e+01, 0.000000e+00, -8.988730e+01, -0.000000e+00
1328, 5, 3.596552e+02, 0.000000e+00, 2.246520e+01, 0.000000e+00, -8.988730e+01, -0.000000e+00
1328, 6, 3.596552e+02, 0.000000e+00, 2.246520e+01, 0.000000e+00, -8.988730e+01, -0.000000e+00
1328, 7, 3.596552e+02, 0.000000e+00, 2.246520e+01, 0.000000e+00, -8.988730e+01, -0.000000e+00
1328, 8, 3.596552e+02, 0.000000e+00, 2.246520e+01, 0.000000e+00, -8.988730e+01, -0.000000e+00
1329, 1, 3.598962e+02, 0.000000e+00, 2.196834e+01, 0.000000e+00, -8.891751e+01, -0.000000e+00
1329, 2, 3.598962e+02, 0.000000e+00, 2.196834e+01, 0.000000e+00, -8.891751e+01, -0.000000e+00
1329, 3, 3.598962e+02, 0.000000e+00, 2.196834e+01, 0.000000e+00, -8.891751e+01, -0.000000e+00
1329, 4, 3.598962e+02, 0.000000e+00, 2.196834e+01, 0.000000e+00, -8.891751e+01, -0.000000e+00
1329, 5, 3.598962e+02, 0.000000e+00, 2.196834e+01, 0.000000e+00, -8.891751e+01, -0.000000e+00
1329, 6, 3.598962e+02, 0.000000e+00, 2.196834e+01, 0.000000e+00, -8.891751e+01, -0.000000e+00
1329, 7, 3.598962e+02, 0.000000e+00, 2.196834e+01, 0.000000e+00, -8.891751e+01, -0.000000e+00
1329, 8, 3.598962e+02, 0.000000e+00, 2.196834e+01, 0.000000e+00, -8.891751e+01, -0.000000e+00
1330, 1, 3.606948e+02, 0.000000e+00, 2.031886e+01, 0.000000e+00, -8.560904e+01, -0.000000e+00
1330, 2, 3.606948e+02, 0.000000e+00, 2.031886e+01, 0.000000e+00, -8.560904e+01, -0.000000e+00
1330, 3, 3.606948e+02, 0.000000e+00, 2.031886e+01, 0.000000e+00, -8.560904e+01, -0.000000e+00
1330, 4, 3.606948e+02, 0.000000e+00, 2.031886e+01, 0.000000e+00, -8.560904e+01, -0.000000e+00
1330, 5, 3.606948e+02, 0.000000e+00, 2.031886e+01, 0.000000e+00, -8.560904e+01, -0.000000e+00
1330, 6, 3.606948e+02, 0.000000e+00, 2.031886e+01, 0.000000e+00, -8.560904e+01, -0.000000e+00
1330, 7, 3.606948e+02, 0.000000e+00, 2.031886e+01, 0.000000e+00, -8.560904e+01, -0.000000e+00
1330, 8, 3.606948e+02, 0.000000e+00, 2.031886e+01, 0.000000e+00, -8.560904e+01, -0.000000e+00
1331, 1, 3.609165e+02, 0.000000e+00, 1.986509e+01, 0.000000e+00, -8.467371e+01, -0.000000e+00
1331, 2, 3.609165e+02, 0.000000e+00, 1.986509e+01, 0.000000e+00, -8.467371e+01, -0.000000e+00
1331, 3, 3.609165e+02, 0.000000e+00, 1.986509e+01, 0.000000e+00, -8.467371e+01, -0.000000e+00
1331, 4, 3.609165e+02, 0.000000e+00, 1.986509e+01, 0.000000e+00, -8.467371e+01, -0.000000e+00
1331, 5, 3.609165e+02, 0.000000e+00, 1.986509e+01, 0.000000e+00, -8.467371e+01, -0.000000e+00
1331, 6, 3.609165e+02, 0.000000e+00, 1.986509e+01, 0.000000e+00, -8.467371e+01, -0.000000e+00
1331, 7, 3.609165e+02, 0.000000e+00, 1.986509e+01, 0.000000e+00, -8.467371e+01, -0.000000e+00
1331, 8, 3.609165e+02, 0.000000e+00, 1.986509e+01, 0.000000e+00, -8.467371e+01, -0.000000e+00
1332, 1, 3.611370e+02, 0.000000e+00, 1.940661e+01, 0.000000e+00, -8.371646e+01, -0.000000e+00
1332, 2, 3.611370e+02, 0.000000e+00, 1.940661e+01, 0.000000e+00, -8.371646e+01, -0.000000e+00
1332, 3, 3.611370e+02, 0.000000e+00, 1.940661e+01, 0.000000e+00, -8.371646e+01, -0.000000e+00
1332, 4, 3.611370e+02, 0.000000e+00, 1.940661e+01, 0.000000e+00, -8.371646e+01, -0.000000e+00
1332, 5, 3.611370e+02, 0.000000e+00, 1.940661e+01, 0.000000e+00, -8.371646e+01, -0.000000e+00
1332, 6, 3.611370e+02, 0.000000e+00, 1.940661e+01, 0.000000e+00, -8.371646e+01, -0.000000e+00
1332, 7, 3.611370e+02, 0.000000e+00, 1.940661e+01, 0.000000e+00, -8.371646e+01, -0.000000e+00
1332, 8, 3.611370e+02, 0.000000e+00, 1.940661e+01, 0.000000e+00, -8.371646e+01, -0.000000e+00
1333, 1, 3.613580e+02, 0.000000e+00, 1.895352e+01, 0.000000e+00, -8.275872e+01, -0.000000e+00
1333, 2, 3.613580e+02, 0.000000e+00, 1.895352e+01, 0.000000e+00, -8.275872e+01, -0.000000e+00
1333, 3, 3.613580e+02, 0.000000e+00, 1.895352e+01, 0.000000e+00, -8.275872e+01, -0.000000e+00
1333, 4, 3.613580e+02, 0.000000e+00, 1.895352e+01, 0.000000e+00, -8.275872e+01, -0.000000e+00
1333, 5, 3.613580e+02, 0.000000e+00, 1.895352e+01, 0.000000e+00, -8.275872e+01, -0.000000e+00
1333, 6, 3.613580e+02, 0.000000e+00, 1.895352e+01, 0.000000e+00, -8.275872e+01, -0.000000e+00
1333, 7, 3.613580e+02, 0.000000e+00, 1.895352e+01, 0.000000e+00, -8.275872e+01, -0.000000e+00
1333, 8, 3.613580e+02, 0.000000e+00, 1.895352e+01, 0.000000e+00, -8.275872e+01, -0.000000e+00
1334, 1, 3.615830e+02, 0.000000e+00, 1.849647e+01, 0.000000e+00, -8.178025e+01, -0.000000e+00
1334, 2, 3.615830e+02, 0.000000e+00, 1.849647e+01, 0.000000e+00, -8.178025e+01, -0.000000e+00
1334, 3, 3.615830e+02, 0.000000e+00, 1.849647e+01, 0.000000e+00, -8.178025e+01, -0.000000e+00
1334, 4, 3.615830e+02, 0.000000e+00, 1.849647e+01, 0.000000e+00, -8.178025e+01, -0.000000e+00
1334, 5, 3.615830e+02, 0.000000e+00, 1.849647e+01, 0.000000e+00, -8.178025e+01, -0.000000e+00
1334, 6, 3.615830e+02, 0.000000e+00, 1.849647e+01, 0.000000e+00, -8.178025e+01, -0.000000e+00
1334, 7, 3.615830e+02, 0.000000e+00, 1.849647e+01, 0.000000e+00, -8.178025e+01, -0.000000e+00
1334, 8, 3.615830e+02, 0.000000e+00, 1.849647e+01, 0.000000e+00, -8.178025e+01, -0.000000e+00
1335, 1, 3.622422e+02, 0.000000e+00, 1.714702e+01, 0.000000e+00, -7.881227e+01, -0.000000e+00
1335, 2, 3.622422e+02, 0.000000e+00, 1.714702e+01, 0.000000e+00, -7.881227e+01, -0.000000e+00
1335, 3, 3.622422e+02, 0.000000e+00, 1.714702e+01, 0.000000e+00, -7.881227e+01, -0.000000e+00
1335, 4, 3.622422e+02, 0.000000e+00, 1.714702e+01, 0.000000e+00, -7.881227e+01, -0.000000e+00
1335, 5, 3.622422e+02, 0.000000e+00, 1.714702e+01, 0.000000e+00, -7.881227e+01, -0.000000e+00
1335, 6, 3.622422e+02, 0.000000e+00, 1.714702e+01, 0.000000e+00, -7.881227e+01, -0.000000e+00
1335, 7, 3.622422e+02, 0.000000e+00, 1.714702e+01, 0.000000e+00, -7.881227e+01, -0.000000e+00
1335, 8, 3.622422e+02, 0.000000e+00, 1.714702e+01, 0.000000e+00, -7.881227e+01, -0.000000e+00
1336, 1, 3.624456e+02, 0.000000e+00, 1.672945e+01, 0.000000e+00, -7.786857e+01, -0.000000e+00
1336, 2, 3.624456e+02, 0.000000e+00, 1.672945e+01, 0.000000e+00, -7.786857e+01, -0.000000e+00
1336, 3, 3.624456e+02, 0.000000e+00, 1.672945e+01, 0.000000e+00, -7.786857e+01, -0.000000e+00
1336, 4, 3.624456e+02, 0.000000e+00, 1.672945e+01, 0.000000e+00, -7.786857e+01, -0.000000e+00
1336, 5, 3.624456e+02, 0.000000e+00, 1.672945e+01, 0.000000e+00, -7.786857e+01, -0.000000e+00
1336, 6, 3.624456e+02, 0.000000e+00, 1.672945e+01, 0.000000e+00, -7.786857e+01, -0.000000e+00
1336, 7, 3.624456e+02, 0.000000e+00, 1.672945e+01, 0.000000e+00, -7.786857e+01, -0.000000e+00
1336, 8, 3.624456e+02, 0.000000e+00, 1.672945e+01, 0.000000e+00, -7.786857e+01, -0.000000e+00
1337, 1, 3.626525e+02, 0.000000e+00, 1.630827e+01, 0.000000e+00, -7.690407e+01, -0.000000e+00
1337, 2, 3.626525e+02, 0.000000e+00, 1.630827e+01, 0.000000e+00, -7.690407e+01, -0.000000e+00
1337, 3, 3.626525e+02, 0.000000e+00, 1.630827e+01, 0.000000e+00, -7.690407e+01, -0.000000e+00
1337, 4, 3.626525e+02, 0.000000e+00, 1.630827e+01, 0.000000e+00, -7.690407e+01, -0.000000e+00
1337, 5, 3.626525e+02, 0.000000e+00, 1.630827e+01, 0.000000e+00, -7.690407e+01, -0.000000e+00
1337, 6, 3.626525e+02, 0.000000e+00, 1.630827e+01, 0.000000e+00, -7.690407e+01, -0.000000e+00
1337, 7, 3.626525e+02, 0.000000e+00, 1.630827e+01, 0.000000e+00, -7.690407e+01, -0.000000e+00
1337, 8, 3.626525e+02, 0.000000e+00, 1.630827e+01, 0.000000e+00, -7.690407e+01, -0.000000e+00
1338, 1, 3.628544e+02, 0.000000e+00, 1.589223e+01, 0.000000e+00, -7.593790e+01, -0.000000e+00
1338, 2, 3.628544e+02, 0.000000e+00, 1.589223e+01, 0.000000e+00, -7.593790e+01, -0.000000e+00
1338, 3, 3.628544e+02, 0.000000e+00, 1.589223e+01, 0.000000e+00, -7.593790e+01, -0.000000e+00
1338, 4, 3.628544e+02, 0.000000e+00, 1.589223e+01, 0.000000e+00, -7.593790e+01, -0.000000e+00
1338, 5, 3.628544e+02, 0.000000e+00, 1.589223e+01, 0.000000e+00, -7.593790e+01, -0.000000e+00
1338, 6, 3.628544e+02, 0.000000e+00, 1.589223e+01, 0.000000e+00, -7.593790e+01, -0.000000e+00
1338, 7, 3.628544e+02, 0.000000e+00, 1.589223e+01, 0.000000e+00, -7.593790e+01, -0.000000e+00
1338, 8, 3.628544e+02, 0.000000e+00, 1.589223e+01, 0.000000e+00, -7.593790e+01, -0.000000e+00
1339, 1, 3.630594e+02, 0.000000e+00, 1.547302e+01, 0.000000e+00, -7.495082e+01, -0.000000e+00
1339, 2, 3.630594e+02, 0.000000e+00, 1.547302e+01, 0.000000e+00, -7.495082e+01, -0.000000e+00
1339, 3, 3.630594e+02, 0.000000e+00, 1.547302e+01, 0.000000e+00, -7.495082e+01, -0.000000e+00
1339, 4, 3.630594e+02, 0.000000e+00, 1.547302e+01, 0.000000e+00, -7.495082e+01, -0.000000e+00
1339, 5, 3.630594e+02, 0.000000e+00, 1.547302e+01, 0.000000e+00, -7.495082e+01, -0.000000e+00
1339, 6, 3.630594e+02, 0.000000e+00, 1.547302e+01, 0.000000e+00, -7.495082e+01, -0.000000e+00
1339, 7, 3.630594e+02, 0.000000e+00, 1.547302e+01, 0.000000e+00, -7.495082e+01, -0.000000e+00
1339, 8, 3.630594e+02, 0.000000e+00, 1.547302e+01, 0.000000e+00, -7.495082e+01, -0.000000e+00
1340, 1, 3.636559e+02, 0.000000e+00, 1.425174e+01, 0.000000e+00, -7.199117e+01, -0.000000e+00
1340, 2, 3.636559e+02, 0.000000e+00, 1.425174e+01, 0.000000e+00, -7.199117e+01, -0.000000e+00
1340, 3, 3.636559e+02, 0.000000e+00, 1.425174e+01, 0.000000e+00, -7.199117e+01, -0.000000e+00
1340, 4, 3.636559e+02, 0.000000e+00, 1.425174e+01, 0.000000e+00, -7.199117e+01, -0.000000e+00
1340, 5, 3.636559e+02, 0.000000e+00, 1.425174e+01, 0.000000e+00, -7.199117e+01, -0.000000e+00
1340, 6, 3.636559e+02, 0.000000e+00, 1.425174e+01, 0.000000e+00, -7.199117e+01, -0.000000e+00
1340, 7, 3.636559e+02, 0.000000e+00, 1.425174e+01, 0.000000e+00, -7.199117e+01, -0.000000e+00
1340, 8, 3.636559e+02, 0.000000e+00, 1.425174e+01, 0.000000e+00, -7.199117e+01, -0.000000e+00
1341, 1, 3.638160e+02, 0.000000e+00, 1.391901e+01, 0.000000e+00, -7.116150e+01, -0.000000e+00
1341, 2, 3.638160e+02, 0.000000e+00, 1.391901e+01, 0.000000e+00, -7.116150e+01, -0.000000e+00
1341, 3, 3.638160e+02, 0.000000e+00, 1.391901e+01, 0.000000e+00, -7.116150e+01, -0.000000e+00
1341, 4, 3.638160e+02, 0.000000e+00, 1.391901e+01, 0.000000e+00, -7.116150e+01, -0.000000e+00
1341, 5, 3.638160e+02, 0.000000e+00, 1.391901e+01, 0.000000e+00, -7.116150e+01, -0.000000e+00
1341, 6, 3.638160e+02, 0.000000e+00, 1.391901e+01, 0.000000e+00, -7.116150e+01, -0.000000e+00
1341, 7, 3.638160e+02, 0.000000e+00, 1.391901e+01, 0.000000e+00, -7.116150e+01, -0.000000e+00
1341, 8, 3.638160e+02, 0.000000e+00, 1.391901e+01, 0.000000e+00, -7.116150e+01, -0.000000e+00
1342, 1, 3.639762e+02, 0.000000e+00, 1.359818e+01, 0.000000e+00, -7.035208e+01, -0.000000e+00
1342, 2, 3.639762e+02, 0.000000e+00, 1.359818e+01, 0.000000e+00, -7.035208e+01, -0.000000e+00
1342, 3, 3.639762e+02, 0.000000e+00, 1.359818e+01, 0.000000e+00, -7.035208e+01, -0.000000e+00
1342, 4, 3.639762e+02, 0.000000e+00, 1.359818e+01, 0.000000e+00, -7.035208e+01, -0.000000e+00
1342, 5, 3.639762e+02, 0.000000e+00, 1.359818e+01, 0.000000e+00, -7.035208e+01, -0.000000e+00
1342, 6, 3.639762e+02, 0.000000e+00, 1.359818e+01, 0.000000e+00, -7.035208e+01, -0.000000e+00
1342, 7, 3.639762e+02, 0.000000e+00, 1.359818e+01, 0.000000e+00, -7.035208e+01, -0.000000e+00
1342, 8, 3.639762e+02, 0.000000e+00, 1.359818e+01, 0.000000e+00, -7.035208e+01, -0.000000e+00
1343, 1, 3.641328e+02, 0.000000e+00, 1.328096e+01, 0.000000e+00, -6.954158e+01, -0.000000e+00
1343, 2, 3.641328e+02, 0.000000e+00, 1.328096e+01, 0.000000e+00, -6.954158e+01, -0.000000e+00
1343, 3, 3.641328e+02, 0.000000e+00, 1.328096e+01, 0.000000e+00, -6.954158e+01, -0.000000e+00
1343, 4, 3.641328e+02, 0.000000e+00, 1.328096e+01, 0.000000e+00, -6.954158e+01, -0.000000e+00
1343, 5, 3.641328e+02, 0.000000e+00, 1.328096e+01, 0.000000e+00, -6.954158e+01, -0.000000e+00
1343, 6, 3.641328e+02, 0.000000e+00, 1.328096e+01, 0.000000e+00, -6.954158e+01, -0.000000e+00
1343, 7, 3.641328e+02, 0.000000e+00, 1.328096e+01, 0.000000e+00, -6.954158e+01, -0.000000e+00
1343, 8, 3.641328e+02, 0.000000e+00, 1.328096e+01, 0.000000e+00, -6.954158e+01, -0.000000e+00
1344, 1, 3.642857e+02, 0.000000e+00, 1.296734e+01, 0.000000e+00, -6.873004e+01, -0.000000e+00
1344, 2, 3.642857e+02, 0.000000e+00, 1.296734e+01, 0.000000e+00, -6.873004e+01, -0.000000e+00
1344, 3, 3.642857e+02, 0.000000e+00, 1.296734e+01, 0.000000e+00, -6.873004e+01, -0.000000e+00
1344, 4, 3.642857e+02, 0.000000e+00, 1.296734e+01, 0.000000e+00, -6.873004e+01, -0.000000e+00
1344, 5, 3.642857e+02, 0.000000e+00, 1.296734e+01, 0.000000e+00, -6.873004e+01, -0.000000e+00
1344, 6, 3.642857e+02, 0.000000e+00, 1.296734e+01, 0.000000e+00, -6.873004e+01, -0.000000e+00
1344, 7, 3.642857e+02, 0.000000e+00, 1.296734e+01, 0.000000e+00, -6.873004e+01, -0.000000e+00
1344, 8, 3.642857e+02, 0.000000e+00, 1.296734e+01, 0.000000e+00, -6.873004e+01, -0.000000e+00
1345, 1, 3.644314e+02, 0.000000e+00, 1.267289e+01, 0.000000e+00, -6.795882e+01, -0.000000e+00
1345, 2, 3.644314e+02, 0.000000e+00, 1.267289e+01, 0.000000e+00, -6.795882e+01, -0.000000e+00
1345, 3, 3.644314e+02, 0.000000e+00, 1.267289e+01, 0.000000e+00, -6.795882e+01, -0.000000e+00
1345, 4, 3.644314e+02, 0.000000e+00, 1.267289e+01, 0.000000e+00, -6.795882e+01, -0.000000e+00
1345, 5, 3.644314e+02, 0.000000e+00, 1.267289e+01, 0.000000e+00, -6.795882e+01, -0.000000e+00
1345, 6, 3.644314e+02, 0.000000e+00, 1.267289e+01, 0.000000e+00, -6.795882e+01, -0.000000e+00
1345, 7, 3.644314e+02, 0.000000e+00, 1.267289e+01, 0.000000e+00, -6.795882e+01, -0.000000e+00
1345, 8, 3.644314e+02, 0.000000e+00, 1.267289e+01, 0.000000e+00, -6.795882e+01, -0.000000e+00
1346, 1, 3.645081e+02, 0.000000e+00, 1.251887e+01, 0.000000e+00, -6.755168e+01, -0.000000e+00
1346, 2, 3.645081e+02, 0.000000e+00, 1.251887e+01, 0.000000e+00, -6.755168e+01, -0.000000e+00
1346, 3, 3.645081e+02, 0.000000e+00, 1.251887e+01, 0.000000e+00, -6.755168e+01, -0.000000e+00
1346, 4, 3.645081e+02, 0.000000e+00, 1.251887e+01, 0.000000e+00, -6.755168e+01, -0.000000e+00
1346, 5, 3.645081e+02, 0.000000e+00, 1.251887e+01, 0.000000e+00, -6.755168e+01, -0.000000e+00
1346, 6, 3.645081e+02, 0.000000e+00, 1.251887e+01, 0.000000e+00, -6.755168e+01, -0.000000e+00
1346, 7, 3.645081e+02, 0.000000e+00, 1.251887e+01, 0.000000e+00, -6.755168e+01, -0.000000e+00
1346, 8, 3.645081e+02, 0.000000e+00, 1.251887e+01, 0.000000e+00, -6.755168e+01, -0.000000e+00
1347, 1, 3.603898e+02, 0.000000e+00, 2.093918e+01, 0.000000e+00, -8.686926e+01, -0.000000e+00
1347, 2, 3.603898e+02, 0.000000e+00, 2.093918e+01, 0.000000e+00, -8.686926e+01, -0.000000e+00
1347, 3, 3.603898e+02, 0.000000e+00, 2.093918e+01, 0.000000e+00, -8.686926e+01, -0.000000e+00
1347, 4, 3.603898e+02, 0.000000e+00, 2.093918e+01, 0.000000e+00, -8.686926e+01, -0.000000e+00
1347, 5, 3.603898e+02, 0.000000e+00, 2.093918e+01, 0.000000e+00, -8.686926e+01, -0.000000e+00
1347, 6, 3.603898e+02, 0.000000e+00, 2.093918e+01, 0.000000e+00, -8.686926e+01, -0.000000e+00
1347, 7, 3.603898e+02, 0.000000e+00, 2.093918e+01, 0.000000e+00, -8.686926e+01, -0.000000e+00
1347, 8, 3.603898e+02, 0.000000e+00, 2.093918e+01, 0.000000e+00, -8.686926e+01, -0.000000e+00
1348, 1, 3.604848e+02, 0.000000e+00, 2.074309e+01, 0.000000e+00, -8.647292e+01, -0.000000e+00
1348, 2, 3.604848e+02, 0.000000e+00, 2.074309e+01, 0.000000e+00, -8.647292e+01, -0.000000e+00
1348, 3, 3.604848e+02, 0.000000e+00, 2.074309e+01, 0.000000e+00, -8.647292e+01, -0.000000e+00
1348, 4, 3.604848e+02, 0.000000e+00, 2.074309e+01, 0.000000e+00, -8.647292e+01, -0.000000e+00
1348, 5, 3.604848e+02, 0.000000e+00, 2.074309e+01, 0.000000e+00, -8.647292e+01, -0.000000e+00
1348, 6, 3.604848e+02, 0.000000e+00, 2.074309e+01, 0.000000e+00, -8.647292e+01, -0.000000e+00
1348, 7, 3.604848e+02, 0.000000e+00, 2.074309e+01, 0.000000e+00, -8.647292e+01, -0.000000e+00
1348, 8, 3.604848e+02, 0.000000e+00, 2.074309e+01, 0.000000e+00, -8.647292e+01, -0.000000e+00
1349, 1, 3.606654e+02, 0.000000e+00, 2.037206e+01, 0.000000e+00, -8.571754e+01, -0.000000e+00
1349, 2, 3.606654e+02, 0.000000e+00, 2.037206e+01, 0.000000e+00, -8.571754e+01, -0.000000e+00
1349, 3, 3.606654e+02, 0.000000e+00, 2.037206e+01, 0.000000e+00, -8.571754e+01, -0.000000e+00
1349, 4, 3.606654e+02, 0.000000e+00, 2.037206e+01, 0.000000e+00, -8.571754e+01, -0.000000e+00
1349, 5, 3.606654e+02, 0.000000e+00, 2.037206e+01, 0.000000e+00, -8.571754e+01, -0.000000e+00
1349, 6, 3.606654e+02, 0.000000e+00, 2.037206e+01, 0.000000e+00, -8.571754e+01, -0.000000e+00
1349, 7, 3.606654e+02, 0.000000e+00, 2.037206e+01, 0.000000e+00, -8.571754e+01, -0.000000e+00
1349, 8, 3.606654e+02, 0.000000e+00, 2.037206e+01, 0.000000e+00, -8.571754e+01, -0.000000e+00
1350, 1, 3.608560e+02, 0.000000e+00, 1.998514e+01, 0.000000e+00, -8.492206e+01, -0.000000e+00
1350, 2, 3.608560e+02, 0.000000e+00, 1.998514e+01, 0.000000e+00, -8.492206e+01, -0.000000e+00
1350, 3, 3.608560e+02, 0.000000e+00, 1.998514e+01, 0.000000e+00, -8.492206e+01, -0.000000e+00
1350, 4, 3.608560e+02, 0.000000e+00, 1.998514e+01, 0.000000e+00, -8.492206e+01, -0.000000e+00
1350, 5, 3.608560e+02, 0.000000e+00, 1.998514e+01, 0.000000e+00, -8.492206e+01, -0.000000e+00
1350, 6, 3.608560e+02, 0.000000e+00, 1.998514e+01, 0.000000e+00, -8.492206e+01, -0.000000e+00
1350, 7, 3.608560e+02, 0.000000e+00, 1.998514e+01, 0.000000e+00, -8.492206e+01, -0.000000e+00
1350, 8, 3.608560e+02, 0.000000e+00, 1.998514e+01, 0.000000e+00, -8.492206e+01, -0.000000e+00
1351, 1, 3.610430e+02, 0.000000e+00, 1.960173e+01, 0.000000e+00, -8.412530e+01, -0.000000e+00
1351, 2, 3.610430e+02, 0.000000e+00, 1.960173e+01, 0.000000e+00, -8.412530e+01, -0.000000e+00
1351, 3, 3.610430e+02, 0.000000e+00, 1.960173e+01, 0.000000e+00, -8.412530e+01, -0.000000e+00
1351, 4, 3.610430e+02, 0.000000e+00, 1.960173e+01, 0.000000e+00, -8.412530e+01, -0.000000e+00
1351, 5, 3.610430e+02, 0.000000e+00, 1.960173e+01, 0.000000e+00, -8.412530e+01, -0.000000e+00
1351, 6, 3.610430e+02, 0.000000e+00, 1.960173e+01, 0.000000e+00, -8.412530e+01, -0.000000e+00
1351, 7, 3.610430e+02, 0.000000e+00, 1.960173e+01, 0.000000e+00, -8.412530e+01, -0.000000e+00
1351, 8, 3.610430e+02, 0.000000e+00, 1.960173e+01, 0.000000e+00, -8.412530e+01, -0.000000e+00
1352, 1, 3.612267e+02, 0.000000e+00, 1.922167e+01, 0.000000e+00, -8.332695e+01, -0.000000e+00
1352, 2, 3.612267e+02, 0.000000e+00, 1.922167e+01, 0.000000e+00, -8.332695e+01, -0.000000e+00
1352, 3, 3.612267e+02, 0.000000e+00, 1.922167e+01, 0.000000e+00, -8.332695e+01, -0.000000e+00
1352, 4, 3.612267e+02, 0.000000e+00, 1.922167e+01, 0.000000e+00, -8.332695e+01, -0.000000e+00
1352, 5, 3.612267e+02, 0.000000e+00, 1.922167e+01, 0.000000e+00, -8.332695e+01, -0.000000e+00
1352, 6, 3.612267e+02, 0.000000e+00, 1.922167e+01, 0.000000e+00, -8.332695e+01, -0.000000e+00
1352, 7, 3.612267e+02, 0.000000e+00, 1.922167e+01, 0.000000e+00, -8.332695e+01, -0.000000e+00
1352, 8, 3.612267e+02, 0.000000e+00, 1.922167e+01, 0.000000e+00, -8.332695e+01, -0.000000e+00
1353, 1, 3.618807e+02, 0.000000e+00, 1.788343e+01, 0.000000e+00, -8.044668e+01, -0.000000e+00
1353, 2, 3.618807e+02, 0.000000e+00, 1.788343e+01, 0.000000e+00, -8.044668e+01, -0.000000e+00
1353, 3, 3.618807e+02, 0.000000e+00, 1.788343e+01, 0.000000e+00, -8.044668e+01, -0.000000e+00
1353, 4, 3.618807e+02, 0.000000e+00, 1.788343e+01, 0.000000e+00, -8.044668e+01, -0.000000e+00
1353, 5, 3.618807e+02, 0.000000e+00, 1.788343e+01, 0.000000e+00, -8.044668e+01, -0.000000e+00
1353, 6, 3.618807e+02, 0.000000e+00, 1.788343e+01, 0.000000e+00, -8.044668e+01, -0.000000e+00
1353, 7, 3.618807e+02, 0.000000e+00, 1.788343e+01, 0.000000e+00, -8.044668e+01, -0.000000e+00
1353, 8, 3.618807e+02, 0.000000e+00, 1.788343e+01, 0.000000e+00, -8.044668e+01, -0.000000e+00
1354, 1, 3.620837e+02, 0.000000e+00, 1.746615e+01, 0.000000e+00, -7.952490e+01, -0.000000e+00
1354, 2, 3.620837e+02, 0.000000e+00, 1.746615e+01, 0.000000e+00, -7.952490e+01, -0.000000e+00
1354, 3, 3.620837e+02, 0.000000e+00, 1.746615e+01, 0.000000e+00, -7.952490e+01, -0.000000e+00
1354, 4, 3.620837e+02, 0.000000e+00, 1.746615e+01, 0.000000e+00, -7.952490e+01, -0.000000e+00
1354, 5, 3.620837e+02, 0.000000e+00, 1.746615e+01, 0.000000e+00, -7.952490e+01, -0.000000e+00
1354, 6, 3.620837e+02, 0.000000e+00, 1.746615e+01, 0.000000e+00, -7.952490e+01, -0.000000e+00
1354, 7, 3.620837e+02, 0.000000e+00, 1.746615e+01, 0.000000e+00, -7.952490e+01, -0.000000e+00
1354, 8, 3.620837e+02, 0.000000e+00, 1.746615e+01, 0.000000e+00, -7.952490e+01, -0.000000e+00
1355, 1, 3.622760e+02, 0.000000e+00, 1.707153e+01, 0.000000e+00, -7.864227e+01, -0.000000e+00
1355, 2, 3.622760e+02, 0.000000e+00, 1.707153e+01, 0.000000e+00, -7.864227e+01, -0.000000e+00
1355, 3, 3.622760e+02, 0.000000e+00, 1.707153e+01, 0.000000e+00, -7.864227e+01, -0.000000e+00
1355, 4, 3.622760e+02, 0.000000e+00, 1.707153e+01, 0.000000e+00, -7.864227e+01, -0.000000e+00
1355, 5, 3.622760e+02, 0.000000e+00, 1.707153e+01, 0.000000e+00, -7.864227e+01, -0.000000e+00
1355, 6, 3.622760e+02, 0.000000e+00, 1.707153e+01, 0.000000e+00, -7.864227e+01, -0.000000e+00
1355, 7, 3.622760e+02, 0.000000e+00, 1.707153e+01, 0.000000e+00, -7.864227e+01, -0.000000e+00
1355, 8, 3.622760e+02, 0.000000e+00, 1.707153e+01, 0.000000e+00, -7.864227e+01, -0.000000e+00
1356, 1, 3.624640e+02, 0.000000e+00, 1.668122e+01, 0.000000e+00, -7.775823e+01, -0.000000e+00
1356, 2, 3.624640e+02, 0.000000e+00, 1.668122e+01, 0.000000e+00, -7.775823e+01, -0.000000e+00
1356, 3, 3.624640e+02, 0.000000e+00, 1.668122e+01, 0.000000e+00, -7.775823e+01, -0.000000e+00
1356, 4, 3.624640e+02, 0.000000e+00, 1.668122e+01, 0.000000e+00, -7.775823e+01, -0.000000e+00
1356, 5, 3.624640e+02, 0.000000e+00, 1.668122e+01, 0.000000e+00, -7.775823e+01, -0.000000e+00
1356, 6, 3.624640e+02, 0.000000e+00, 1.668122e+01, 0.000000e+00, -7.775823e+01, -0.000000e+00
1356, 7, 3.624640e+02, 0.000000e+00, 1.668122e+01, 0.000000e+00, -7.775823e+01, -0.000000e+00
1356, 8, 3.624640e+02, 0.000000e+00, 1.668122e+01, 0.000000e+00, -7.775823e+01, -0.000000e+00
1357, 1, 3.626648e+02, 0.000000e+00, 1.627818e+01, 0.000000e+00, -7.683438e+01, -0.000000e+00
1357, 2, 3.626648e+02, 0.000000e+00, 1.627818e+01, 0.000000e+00, -7.683438e+01, -0.000000e+00
1357, 3, 3.626648e+02, 0.000000e+00, 1.627818e+01, 0.000000e+00, -7.683438e+01, -0.000000e+00
1357, 4, 3.626648e+02, 0.000000e+00, 1.627818e+01, 0.000000e+00, -7.683438e+01, -0.000000e+00
1357, 5, 3.626648e+02, 0.000000e+00, 1.627818e+01, 0.000000e+00, -7.683438e+01, -0.000000e+00
1357, 6, 3.626648e+02, 0.000000e+00, 1.627818e+01, 0.000000e+00, -7.683438e+01, -0.000000e+00
1357, 7, 3.626648e+02, 0.000000e+00, 1.627818e+01, 0.000000e+00, -7.683438e+01, -0.000000e+00
1357, 8, 3.626648e+02, 0.000000e+00, 1.627818e+01, 0.000000e+00, -7.683438e+01, -0.000000e+00
1358, 1, 3.632848e+02, 0.000000e+00, 1.500955e+01, 0.000000e+00, -7.384269e+01, -0.000000e+00
1358, 2, 3.632848e+02, 0.000000e+00, 1.500955e+01, 0.000000e+00, -7.384269e+01, -0.000000e+00
1358, 3, 3.632848e+02, 0.000000e+00, 1.500955e+01, 0.000000e+00, -7.384269e+01, -0.000000e+00
1358, 4, 3.632848e+02, 0.000000e+00, 1.500955e+01, 0.000000e+00, -7.384269e+01, -0.000000e+00
1358, 5, 3.632848e+02, 0.000000e+00, 1.500955e+01, 0.000000e+00, -7.384269e+01, -0.000000e+00
1358, 6, 3.632848e+02, 0.000000e+00, 1.500955e+01, 0.000000e+00, -7.384269e+01, -0.000000e+00
1358, 7, 3.632848e+02, 0.000000e+00, 1.500955e+01, 0.000000e+00, -7.384269e+01, -0.000000e+00
1358, 8, 3.632848e+02, 0.000000e+00, 1.500955e+01, 0.000000e+00, -7.384269e+01, -0.000000e+00
1359, 1, 3.634713e+02, 0.000000e+00, 1.462675e+01, 0.000000e+00, -7.291368e+01, -0.000000e+00
1359, 2, 3.634713e+02, 0.000000e+00, 1.462675e+01, 0.000000e+00, -7.291368e+01, -0.000000e+00
1359, 3, 3.634713e+02, 0.000000e+00, 1.462675e+01, 0.000000e+00, -7.291368e+01, -0.000000e+00
1359, 4, 3.634713e+02, 0.000000e+00, 1.462675e+01, 0.000000e+00, -7.291368e+01, -0.000000e+00
1359, 5, 3.634713e+02, 0.000000e+00, 1.462675e+01, 0.000000e+00, -7.291368e+01, -0.000000e+00
1359, 6, 3.634713e+02, 0.000000e+00, 1.462675e+01, 0.000000e+00, -7.291368e+01, -0.000000e+00
1359, 7, 3.634713e+02, 0.000000e+00, 1.462675e+01, 0.000000e+00, -7.291368e+01, -0.000000e+00
1359, 8, 3.634713e+02, 0.000000e+00, 1.462675e+01, 0.000000e+00, -7.291368e+01, -0.000000e+00
1360, 1, 3.636484e+02, 0.000000e+00, 1.426518e+01, 0.000000e+00, -7.202436e+01, -0.000000e+00
1360, 2, 3.636484e+02, 0.000000e+00, 1.426518e+01, 0.000000e+00, -7.202436e+01, -0.000000e+00
1360, 3, 3.636484e+02, 0.000000e+00, 1.426518e+01, 0.000000e+00, -7.202436e+01, -0.000000e+00
1360, 4, 3.636484e+02, 0.000000e+00, 1.426518e+01, 0.000000e+00, -7.202436e+01, -0.000000e+00
1360, 5, 3.636484e+02, 0.000000e+00, 1.426518e+01, 0.000000e+00, -7.202436e+01, -0.000000e+00
1360, 6, 3.636484e+02, 0.000000e+00, 1.426518e+01, 0.000000e+00, -7.202436e+01, -0.000000e+00
1360, 7, 3.636484e+02, 0.000000e+00, 1.426518e+01, 0.000000e+00, -7.202436e+01, -0.000000e+00
1360, 8, 3.636484e+02, 0.000000e+00, 1.426518e+01, 0.000000e+00, -7.202436e+01, -0.000000e+00
1361, 1, 3.638211e+02, 0.000000e+00, 1.390796e+01, 0.000000e+00, -7.113374e+01, -0.000000e+00
1361, 2, 3.638211e+02, 0.000000e+00, 1.390796e+01, 0.000000e+00, -7.113374e+01, -0.000000e+00
1361, 3, 3.638211e+02, 0.000000e+00, 1.390796e+01, 0.000000e+00, -7.113374e+01, -0.000000e+00
1361, 4, 3.638211e+02, 0.000000e+00, 1.390796e+01, 0.000000e+00, -7.113374e+01, -0.000000e+00
1361, 5, 3.638211e+02, 0.000000e+00, 1.390796e+01, 0.000000e+00, -7.113374e+01, -0.000000e+00
1361, 6, 3.638211e+02, 0.000000e+00, 1.390796e+01, 0.000000e+00, -7.113374e+01, -0.000000e+00
1361, 7, 3.638211e+02, 0.000000e+00, 1.390796e+01, 0.000000e+00, -7.113374e+01, -0.000000e+00
1361, 8, 3.638211e+02, 0.000000e+00, 1.390796e+01, 0.000000e+00, -7.113374e+01, -0.000000e+00
1362, 1, 3.640052e+02, 0.000000e+00, 1.353947e+01, 0.000000e+00, -7.020282e+01, -0.000000e+00
1362, 2, 3.640052e+02, 0.000000e+00, 1.353947e+01, 0.000000e+00, -7.020282e+01, -0.000000e+00
1362, 3, 3.640052e+02, 0.000000e+00, 1.353947e+01, 0.000000e+00, -7.020282e+01, -0.000000e+00
1362, 4, 3.640052e+02, 0.000000e+00, 1.353947e+01, 0.000000e+00, -7.020282e+01, -0.000000e+00
1362, 5, 3.640052e+02, 0.000000e+00, 1.353947e+01, 0.000000e+00, -7.020282e+01, -0.000000e+00
1362, 6, 3.640052e+02, 0.000000e+00, 1.353947e+01, 0.000000e+00, -7.020282e+01, -0.000000e+00
1362, 7, 3.640052e+02, 0.000000e+00, 1.353947e+01, 0.000000e+00, -7.020282e+01, -0.000000e+00
1362, 8, 3.640052e+02, 0.000000e+00, 1.353947e+01, 0.000000e+00, -7.020282e+01, -0.000000e+00
1363, 1, 3.646492e+02, 0.000000e+00, 1.223493e+01, 0.000000e+00, -6.679414e+01, -0.000000e+00
1363, 2, 3.646492e+02, 0.000000e+00, 1.223493e+01, 0.000000e+00, -6.679414e+01, -0.000000e+00
1363, 3, 3.646492e+02, 0.000000e+00, 1.223493e+01, 0.000000e+00, -6.679414e+01, -0.000000e+00
1363, 4, 3.646492e+02, 0.000000e+00, 1.223493e+01, 0.000000e+00, -6.679414e+01, -0.000000e+00
1363, 5, 3.646492e+02, 0.000000e+00, 1.223493e+01, 0.000000e+00, -6.679414e+01, -0.000000e+00
1363, 6, 3.646492e+02, 0.000000e+00, 1.223493e+01, 0.000000e+00, -6.679414e+01, -0.000000e+00
1363, 7, 3.646492e+02, 0.000000e+00, 1.223493e+01, 0.000000e+00, -6.679414e+01, -0.000000e+00
1363, 8, 3.646492e+02, 0.000000e+00, 1.223493e+01, 0.000000e+00, -6.679414e+01, -0.000000e+00
1364, 1, 3.648225e+02, 0.000000e+00, 1.188908e+01, 0.000000e+00, -6.585897e+01, -0.000000e+00
1364, 2, 3.648225e+02, 0.000000e+00, 1.188908e+01, 0.000000e+00, -6.585897e+01, -0.000000e+00
1364, 3, 3.648225e+02, 0.000000e+00, 1.188908e+01, 0.000000e+00, -6.585897e+01, -0.000000e+00
1364, 4, 3.648225e+02, 0.000000e+00, 1.188908e+01, 0.000000e+00, -6.585897e+01, -0.000000e+00
1364, 5, 3.648225e+02, 0.000000e+00, 1.188908e+01, 0.000000e+00, -6.585897e+01, -0.000000e+00
1364, 6, 3.648225e+02, 0.000000e+00, 1.188908e+01, 0.000000e+00, -6.585897e+01, -0.000000e+00
1364, 7, 3.648225e+02, 0.000000e+00, 1.188908e+01, 0.000000e+00, -6.585897e+01, -0.000000e+00
1364, 8, 3.648225e+02, 0.000000e+00, 1.188908e+01, 0.000000e+00, -6.585897e+01, -0.000000e+00
1365, 1, 3.649823e+02, 0.000000e+00, 1.156271e+01, 0.000000e+00, -6.496295e+01, -0.000000e+00
1365, 2, 3.649823e+02, 0.000000e+00, 1.156271e+01, 0.000000e+00, -6.496295e+01, -0.000000e+00
1365, 3, 3.649823e+02, 0.000000e+00, 1.156271e+01, 0.000000e+00, -6.496295e+01, -0.000000e+00
1365, 4, 3.649823e+02, 0.000000e+00, 1.156271e+01, 0.000000e+00, -6.496295e+01, -0.000000e+00
1365, 5, 3.649823e+02, 0.000000e+00, 1.156271e+01, 0.000000e+00, -6.496295e+01, -0.000000e+00
1365, 6, 3.649823e+02, 0.000000e+00, 1.156271e+01, 0.000000e+00, -6.496295e+01, -0.000000e+00
1365, 7, 3.649823e+02, 0.000000e+00, 1.156271e+01, 0.000000e+00, -6.496295e+01, -0.000000e+00
1365, 8, 3.649823e+02, 0.000000e+00, 1.156271e+01, 0.000000e+00, -6.496295e+01, -0.000000e+00
1366, 1, 3.651376e+02, 0.000000e+00, 1.124075e+01, 0.000000e+00, -6.406576e+01, -0.000000e+00
1366, 2, 3.651376e+02, 0.000000e+00, 1.124075e+01, 0.000000e+00, -6.406576e+01, -0.000000e+00
1366, 3, 3.651376e+02, 0.000000e+00, 1.124075e+01, 0.000000e+00, -6.406576e+01, -0.000000e+00
1366, 4, 3.651376e+02, 0.000000e+00, 1.124075e+01, 0.000000e+00, -6.406576e+01, -0.000000e+00
1366, 5, 3.651376e+02, 0.000000e+00, 1.124075e+01, 0.000000e+00, -6.406576e+01, -0.000000e+00
1366, 6, 3.651376e+02, 0.000000e+00, 1.124075e+01, 0.000000e+00, -6.406576e+01, -0.000000e+00
1366, 7, 3.651376e+02, 0.000000e+00, 1.124075e+01, 0.000000e+00, -6.406576e+01, -0.000000e+00
1366, 8, 3.651376e+02, 0.000000e+00, 1.124075e+01, 0.000000e+00, -6.406576e+01, -0.000000e+00
1367, 1, 3.652969e+02, 0.000000e+00, 1.090892e+01, 0.000000e+00, -6.312683e+01, -0.000000e+00
1367, 2, 3.652969e+02, 0.000000e+00, 1.090892e+01, 0.000000e+00, -6.312683e+01, -0.000000e+00
1367, 3, 3.652969e+02, 0.000000e+00, 1.090892e+01, 0.000000e+00, -6.312683e+01, -0.000000e+00
1367, 4, 3.652969e+02, 0.000000e+00, 1.090892e+01, 0.000000e+00, -6.312683e+01, -0.000000e+00
1367, 5, 3.652969e+02, 0.000000e+00, 1.090892e+01, 0.000000e+00, -6.312683e+01, -0.000000e+00
1367, 6, 3.652969e+02, 0.000000e+00, 1.090892e+01, 0.000000e+00, -6.312683e+01, -0.000000e+00
1367, 7, 3.652969e+02, 0.000000e+00, 1.090892e+01, 0.000000e+00, -6.312683e+01, -0.000000e+00
1367, 8, 3.652969e+02, 0.000000e+00, 1.090892e+01, 0.000000e+00, -6.312683e+01, -0.000000e+00
1368, 1, 3.658095e+02, 0.000000e+00, 9.866729e+00, 0.000000e+00, -6.007781e+01, -0.000000e+00
1368, 2, 3.658095e+02, 0.000000e+00, 9.866729e+00, 0.000000e+00, -6.007781e+01, -0.000000e+00
1368, 3, 3.658095e+02, 0.000000e+00, 9.866729e+00, 0.000000e+00, -6.007781e+01, -0.000000e+00
1368, 4, 3.658095e+02, 0.000000e+00, 9.866729e+00, 0.000000e+00, -6.007781e+01, -0.000000e+00
1368, 5, 3.658095e+02, 0.000000e+00, 9.866729e+00, 0.000000e+00, -6.007781e+01, -0.000000e+00
1368, 6, 3.658095e+02, 0.000000e+00, 9.866729e+00, 0.000000e+00, -6.007781e+01, -0.000000e+00
1368, 7, 3.658095e+02, 0.000000e+00, 9.866729e+00, 0.000000e+00, -6.007781e+01, -0.000000e+00
1368, 8, 3.658095e+02, 0.000000e+00, 9.866729e+00, 0.000000e+00, -6.007781e+01, -0.000000e+00
1369, 1, 3.659656e+02, 0.000000e+00, 9.555908e+00, 0.000000e+00, -5.913657e+01, -0.000000e+00
1369, 2, 3.659656e+02, 0.000000e+00, 9.555908e+00, 0.000000e+00, -5.913657e+01, -0.000000e+00
1369, 3, 3.659656e+02, 0.000000e+00, 9.555908e+00, 0.000000e+00, -5.913657e+01, -0.000000e+00
1369, 4, 3.659656e+02, 0.000000e+00, 9.555908e+00, 0.000000e+00, -5.913657e+01, -0.000000e+00
1369, 5, 3.659656e+02, 0.000000e+00, 9.555908e+00, 0.000000e+00, -5.913657e+01, -0.000000e+00
1369, 6, 3.659656e+02, 0.000000e+00, 9.555908e+00, 0.000000e+00, -5.913657e+01, -0.000000e+00
1369, 7, 3.659656e+02, 0.000000e+00, 9.555908e+00, 0.000000e+00, -5.913657e+01, -0.000000e+00
1369, 8, 3.659656e+02, 0.000000e+00, 9.555908e+00, 0.000000e+00, -5.913657e+01, -0.000000e+00
1370, 1, 3.661155e+02, 0.000000e+00, 9.263265e+00, 0.000000e+00, -5.823594e+01, -0.000000e+00
1370, 2, 3.661155e+02, 0.000000e+00, 9.263265e+00, 0.000000e+00, -5.823594e+01, -0.000000e+00
1370, 3, 3.661155e+02, 0.000000e+00, 9.263265e+00, 0.000000e+00, -5.823594e+01, -0.000000e+00
1370, 4, 3.661155e+02, 0.000000e+00, 9.263265e+00, 0.000000e+00, -5.823594e+01, -0.000000e+00
1370, 5, 3.661155e+02, 0.000000e+00, 9.263265e+00, 0.000000e+00, -5.823594e+01, -0.000000e+00
1370, 6, 3.661155e+02, 0.000000e+00, 9.263265e+00, 0.000000e+00, -5.823594e+01, -0.000000e+00
1370, 7, 3.661155e+02, 0.000000e+00, 9.263265e+00, 0.000000e+00, -5.823594e+01, -0.000000e+00
1370, 8, 3.661155e+02, 0.000000e+00, 9.263265e+00, 0.000000e+00, -5.823594e+01, -0.000000e+00
1371, 1, 3.662551e+02, 0.000000e+00, 8.974916e+00, 0.000000e+00, -5.733331e+01, -0.000000e+00
1371, 2, 3.662551e+02, 0.000000e+00, 8.974916e+00, 0.000000e+00, -5.733331e+01, -0.000000e+00
1371, 3, 3.662551e+02, 0.000000e+00, 8.974916e+00, 0.000000e+00, -5.733331e+01, -0.000000e+00
1371, 4, 3.662551e+02, 0.000000e+00, 8.974916e+00, 0.000000e+00, -5.733331e+01, -0.000000e+00
1371, 5, 3.662551e+02, 0.000000e+00, 8.974916e+00, 0.000000e+00, -5.733331e+01, -0.000000e+00
1371, 6, 3.662551e+02, 0.000000e+00, 8.974916e+00, 0.000000e+00, -5.733331e+01, -0.000000e+00
1371, 7, 3.662551e+02, 0.000000e+00, 8.974916e+00, 0.000000e+00, -5.733331e+01, -0.000000e+00
1371, 8, 3.662551e+02, 0.000000e+00, 8.974916e+00, 0.000000e+00, -5.733331e+01, -0.000000e+00
1372, 1, 3.663970e+02, 0.000000e+00, 8.678242e+00, 0.000000e+00, -5.638867e+01, -0.000000e+00
1372, 2, 3.663970e+02, 0.000000e+00, 8.678242e+00, 0.000000e+00, -5.638867e+01, -0.000000e+00
1372, 3, 3.663970e+02, 0.000000e+00, 8.678242e+00, 0.000000e+00, -5.638867e+01, -0.000000e+00
1372, 4, 3.663970e+02, 0.000000e+00, 8.678242e+00, 0.000000e+00, -5.638867e+01, -0.000000e+00
1372, 5, 3.663970e+02, 0.000000e+00, 8.678242e+00, 0.000000e+00, -5.638867e+01, -0.000000e+00
1372, 6, 3.663970e+02, 0.000000e+00, 8.678242e+00, 0.000000e+00, -5.638867e+01, -0.000000e+00
1372, 7, 3.663970e+02, 0.000000e+00, 8.678242e+00, 0.000000e+00, -5.638867e+01, -0.000000e+00
1372, 8, 3.663970e+02, 0.000000e+00, 8.678242e+00, 0.000000e+00, -5.638867e+01, -0.000000e+00
1373, 1, 3.668568e+02, 0.000000e+00, 7.748457e+00, 0.000000e+00, -5.331579e+01, -0.000000e+00
1373, 2, 3.668568e+02, 0.000000e+00, 7.748457e+00, 0.000000e+00, -5.331579e+01, -0.000000e+00
1373, 3, 3.668568e+02, 0.000000e+00, 7.748457e+00, 0.000000e+00, -5.331579e+01, -0.000000e+00
1373, 4, 3.668568e+02, 0.000000e+00, 7.748457e+00, 0.000000e+00, -5.331579e+01, -0.000000e+00
1373, 5, 3.668568e+02, 0.000000e+00, 7.748457e+00, 0.000000e+00, -5.331579e+01, -0.000000e+00
1373, 6, 3.668568e+02, 0.000000e+00, 7.748457e+00, 0.000000e+00, -5.331579e+01, -0.000000e+00
1373, 7, 3.668568e+02, 0.000000e+00, 7.748457e+00, 0.000000e+00, -5.331579e+01, -0.000000e+00
1373, 8, 3.668568e+02, 0.000000e+00, 7.748457e+00, 0.000000e+00, -5.331579e+01, -0.000000e+00
1374, 1, 3.669955e+02, 0.000000e+00, 7.472902e+00, 0.000000e+00, -5.236908e+01, -0.000000e+00
1374, 2, 3.669955e+02, 0.000000e+00, 7.472902e+00, 0.000000e+00, -5.236908e+01, -0.000000e+00
1374, 3, 3.669955e+02, 0.000000e+00, 7.472902e+00, 0.000000e+00, -5.236908e+01, -0.000000e+00
1374, 4, 3.669955e+02, 0.000000e+00, 7.472902e+00, 0.000000e+00, -5.236908e+01, -0.000000e+00
1374, 5, 3.669955e+02, 0.000000e+00, 7.472902e+00, 0.000000e+00, -5.236908e+01, -0.000000e+00
1374, 6, 3.669955e+02, 0.000000e+00, 7.472902e+00, 0.000000e+00, -5.236908e+01, -0.000000e+00
1374, 7, 3.669955e+02, 0.000000e+00, 7.472902e+00, 0.000000e+00, -5.236908e+01, -0.000000e+00
1374, 8, 3.669955e+02, 0.000000e+00, 7.472902e+00, 0.000000e+00, -5.236908e+01, -0.000000e+00
1375, 1, 3.671235e+02, 0.000000e+00, 7.213903e+00, 0.000000e+00, -5.146255e+01, -0.000000e+00
1375, 2, 3.671235e+02, 0.000000e+00, 7.213903e+00, 0.000000e+00, -5.146255e+01, -0.000000e+00
1375, 3, 3.671235e+02, 0.000000e+00, 7.213903e+00, 0.000000e+00, -5.146255e+01, -0.000000e+00
1375, 4, 3.671235e+02, 0.000000e+00, 7.213903e+00, 0.000000e+00, -5.146255e+01, -0.000000e+00
1375, 5, 3.671235e+02, 0.000000e+00, 7.213903e+00, 0.000000e+00, -5.146255e+01, -0.000000e+00
1375, 6, 3.671235e+02, 0.000000e+00, 7.213903e+00, 0.000000e+00, -5.146255e+01, -0.000000e+00
1375, 7, 3.671235e+02, 0.000000e+00, 7.213903e+00, 0.000000e+00, -5.146255e+01, -0.000000e+00
1375, 8, 3.671235e+02, 0.000000e+00, 7.213903e+00, 0.000000e+00, -5.146255e+01, -0.000000e+00
1376, 1, 3.672472e+02, 0.000000e+00, 6.959386e+00, 0.000000e+00, -5.055507e+01, -0.000000e+00
1376, 2, 3.672472e+02, 0.000000e+00, 6.959386e+00, 0.000000e+00, -5.055507e+01, -0.000000e+00
1376, 3, 3.672472e+02, 0.000000e+00, 6.959386e+00, 0.000000e+00, -5.055507e+01, -0.000000e+00
1376, 4, 3.672472e+02, 0.000000e+00, 6.959386e+00, 0.000000e+00, -5.055507e+01, -0.000000e+00
1376, 5, 3.672472e+02, 0.000000e+00, 6.959386e+00, 0.000000e+00, -5.055507e+01, -0.000000e+00
1376, 6, 3.672472e+02, 0.000000e+00, 6.959386e+00, 0.000000e+00, -5.055507e+01, -0.000000e+00
1376, 7, 3.672472e+02, 0.000000e+00, 6.959386e+00, 0.000000e+00, -5.055507e+01, -0.000000e+00
1376, 8, 3.672472e+02, 0.000000e+00, 6.959386e+00, 0.000000e+00, -5.055507e+01, -0.000000e+00
1377, 1, 3.673774e+02, 0.000000e+00, 6.698207e+00, 0.000000e+00, -4.960615e+01, -0.000000e+00
1377, 2, 3.673774e+02, 0.000000e+00, 6.698207e+00, 0.000000e+00, -4.960615e+01, -0.000000e+00
1377, 3, 3.673774e+02, 0.000000e+00, 6.698207e+00, 0.000000e+00, -4.960615e+01, -0.000000e+00
1377, 4, 3.673774e+02, 0.000000e+00, 6.698207e+00, 0.000000e+00, -4.960615e+01, -0.000000e+00
1377, 5, 3.673774e+02, 0.000000e+00, 6.698207e+00, 0.000000e+00, -4.960615e+01, -0.000000e+00
1377, 6, 3.673774e+02, 0.000000e+00, 6.698207e+00, 0.000000e+00, -4.960615e+01, -0.000000e+00
1377, 7, 3.673774e+02, 0.000000e+00, 6.698207e+00, 0.000000e+00, -4.960615e+01, -0.000000e+00
1377, 8, 3.673774e+02, 0.000000e+00, 6.698207e+00, 0.000000e+00, -4.960615e+01, -0.000000e+00
1378, 1, 3.678365e+02, 0.000000e+00, 5.780958e+00, 0.000000e+00, -4.611342e+01, -0.000000e+00
1378, 2, 3.678365e+02, 0.000000e+00, 5.780958e+00, 0.000000e+00, -4.611342e+01, -0.000000e+00
1378, 3, 3.678365e+02, 0.000000e+00, 5.780958e+00, 0.000000e+00, -4.611342e+01, -0.000000e+00
1378, 4, 3.678365e+02, 0.000000e+00, 5.780958e+00, 0.000000e+00, -4.611342e+01, -0.000000e+00
1378, 5, 3.678365e+02, 0.000000e+00, 5.780958e+00, 0.000000e+00, -4.611342e+01, -0.000000e+00
1378, 6, 3.678365e+02, 0.000000e+00, 5.780958e+00, 0.000000e+00, -4.611342e+01, -0.000000e+00
1378, 7, 3.678365e+02, 0.000000e+00, 5.780958e+00, 0.000000e+00, -4.611342e+01, -0.000000e+00
1378, 8, 3.678365e+02, 0.000000e+00, 5.780958e+00, 0.000000e+00, -4.611342e+01, -0.000000e+00
1379, 1, 3.679555e+02, 0.000000e+00, 5.542951e+00, 0.000000e+00, -4.516148e+01, -0.000000e+00
1379, 2, 3.679555e+02, 0.000000e+00, 5.542951e+00, 0.000000e+00, -4.516148e+01, -0.000000e+00
1379, 3, 3.679555e+02, 0.000000e+00, 5.542951e+00, 0.000000e+00, -4.516148e+01, -0.000000e+00
1379, 4, 3.679555e+02, 0.000000e+00, 5.542951e+00, 0.000000e+00, -4.516148e+01, -0.000000e+00
1379, 5, 3.679555e+02, 0.000000e+00, 5.542951e+00, 0.000000e+00, -4.516148e+01, -0.000000e+00
1379, 6, 3.679555e+02, 0.000000e+00, 5.542951e+00, 0.000000e+00, -4.516148e+01, -0.000000e+00
1379, 7, 3.679555e+02, 0.000000e+00, 5.542951e+00, 0.000000e+00, -4.516148e+01, -0.000000e+00
1379, 8, 3.679555e+02, 0.000000e+00, 5.542951e+00, 0.000000e+00, -4.516148e+01, -0.000000e+00
1380, 1, 3.680655e+02, 0.000000e+00, 5.319916e+00, 0.000000e+00, -4.425017e+01, -0.000000e+00
1380, 2, 3.680655e+02, 0.000000e+00, 5.319916e+00, 0.000000e+00, -4.425017e+01, -0.000000e+00
1380, 3, 3.680655e+02, 0.000000e+00, 5.319916e+00, 0.000000e+00, -4.425017e+01, -0.000000e+00
1380, 4, 3.680655e+02, 0.000000e+00, 5.319916e+00, 0.000000e+00, -4.425017e+01, -0.000000e+00
1380, 5, 3.680655e+02, 0.000000e+00, 5.319916e+00, 0.000000e+00, -4.425017e+01, -0.000000e+00
1380, 6, 3.680655e+02, 0.000000e+00, 5.319916e+00, 0.000000e+00, -4.425017e+01, -0.000000e+00
1380, 7, 3.680655e+02, 0.000000e+00, 5.319916e+00, 0.000000e+00, -4.425017e+01, -0.000000e+00
1380, 8, 3.680655e+02, 0.000000e+00, 5.319916e+00, 0.000000e+00, -4.425017e+01, -0.000000e+00
1381, 1, 3.681768e+02, 0.000000e+00, 5.101480e+00, 0.000000e+00, -4.333874e+01, -0.000000e+00
1381, 2, 3.681768e+02, 0.000000e+00, 5.101480e+00, 0.000000e+00, -4.333874e+01, -0.000000e+00
1381, 3, 3.681768e+02, 0.000000e+00, 5.101480e+00, 0.000000e+00, -4.333874e+01, -0.000000e+00
1381, 4, 3.681768e+02, 0.000000e+00, 5.101480e+00, 0.000000e+00, -4.333874e+01, -0.000000e+00
1381, 5, 3.681768e+02, 0.000000e+00, 5.101480e+00, 0.000000e+00, -4.333874e+01, -0.000000e+00
1381, 6, 3.681768e+02, 0.000000e+00, 5.101480e+00, 0.000000e+00, -4.333874e+01, -0.000000e+00
1381, 7, 3.681768e+02, 0.000000e+00, 5.101480e+00, 0.000000e+00, -4.333874e+01, -0.000000e+00
1381, 8, 3.681768e+02, 0.000000e+00, 5.101480e+00, 0.000000e+00, -4.333874e+01, -0.000000e+00
1382, 1, 3.682873e+02, 0.000000e+00, 4.877929e+00, 0.000000e+00, -4.238490e+01, -0.000000e+00
1382, 2, 3.682873e+02, 0.000000e+00, 4.877929e+00, 0.000000e+00, -4.238490e+01, -0.000000e+00
1382, 3, 3.682873e+02, 0.000000e+00, 4.877929e+00, 0.000000e+00, -4.238490e+01, -0.000000e+00
1382, 4, 3.682873e+02, 0.000000e+00, 4.877929e+00, 0.000000e+00, -4.238490e+01, -0.000000e+00
1382, 5, 3.682873e+02, 0.000000e+00, 4.877929e+00, 0.000000e+00, -4.238490e+01, -0.000000e+00
1382, 6, 3.682873e+02, 0.000000e+00, 4.877929e+00, 0.000000e+00, -4.238490e+01, -0.000000e+00
1382, 7, 3.682873e+02, 0.000000e+00, 4.877929e+00, 0.000000e+00, -4.238490e+01, -0.000000e+00
1382, 8, 3.682873e+02, 0.000000e+00, 4.877929e+00, 0.000000e+00, -4.238490e+01, -0.000000e+00
1383, 1, 3.686306e+02, 0.000000e+00, 4.183535e+00, 0.000000e+00, -3.927059e+01, -0.000000e+00
1383, 2, 3.686306e+02, 0.000000e+00, 4.183535e+00, 0.000000e+00, -3.927059e+01, -0.000000e+00
1383, 3, 3.686306e+02, 0.000000e+00, 4.183535e+00, 0.000000e+00, -3.927059e+01, -0.000000e+00
1383, 4, 3.686306e+02, 0.000000e+00, 4.183535e+00, 0.000000e+00, -3.927059e+01, -0.000000e+00
1383, 5, 3.686306e+02, 0.000000e+00, 4.183535e+00, 0.000000e+00, -3.927059e+01, -0.000000e+00
1383, 6, 3.686306e+02, 0.000000e+00, 4.183535e+00, 0.000000e+00, -3.927059e+01, -0.000000e+00
1383, 7, 3.686306e+02, 0.000000e+00, 4.183535e+00, 0.000000e+00, -3.927059e+01, -0.000000e+00
1383, 8, 3.686306e+02, 0.000000e+00, 4.183535e+00, 0.000000e+00, -3.927059e+01, -0.000000e+00
1384, 1, 3.687318e+02, 0.000000e+00, 3.981221e+00, 0.000000e+00, -3.831452e+01, -0.000000e+00
1384, 2, 3.687318e+02, 0.000000e+00, 3.981221e+00, 0.000000e+00, -3.831452e+01, -0.000000e+00
1384, 3, 3.687318e+02, 0.000000e+00, 3.981221e+00, 0.000000e+00, -3.831452e+01, -0.000000e+00
1384, 4, 3.687318e+02, 0.000000e+00, 3.981221e+00, 0.000000e+00, -3.831452e+01, -0.000000e+00
1384, 5, 3.687318e+02, 0.000000e+00, 3.981221e+00, 0.000000e+00, -3.831452e+01, -0.000000e+00
1384, 6, 3.687318e+02, 0.000000e+00, 3.981221e+00, 0.000000e+00, -3.831452e+01, -0.000000e+00
1384, 7, 3.687318e+02, 0.000000e+00, 3.981221e+00, 0.000000e+00, -3.831452e+01, -0.000000e+00
1384, 8, 3.687318e+02, 0.000000e+00, 3.981221e+00, 0.000000e+00, -3.831452e+01, -0.000000e+00
1385, 1, 3.688255e+02, 0.000000e+00, 3.792362e+00, 0.000000e+00, -3.739946e+01, -0.000000e+00
1385, 2, 3.688255e+02, 0.000000e+00, 3.792362e+00, 0.000000e+00, -3.739946e+01, -0.000000e+00
1385, 3, 3.688255e+02, 0.000000e+00, 3.792362e+00, 0.000000e+00, -3.739946e+01, -0.000000e+00
1385, 4, 3.688255e+02, 0.000000e+00, 3.792362e+00, 0.000000e+00, -3.739946e+01, -0.000000e+00
1385, 5, 3.688255e+02, 0.000000e+00, 3.792362e+00, 0.000000e+00, -3.739946e+01, -0.000000e+00
1385, 6, 3.688255e+02, 0.000000e+00, 3.792362e+00, 0.000000e+00, -3.739946e+01, -0.000000e+00
1385, 7, 3.688255e+02, 0.000000e+00, 3.792362e+00, 0.000000e+00, -3.739946e+01, -0.000000e+00
1385, 8, 3.688255e+02, 0.000000e+00, 3.792362e+00, 0.000000e+00, -3.739946e+01, -0.000000e+00
1386, 1, 3.689146e+02, 0.000000e+00, 3.608047e+00, 0.000000e+00, -3.648371e+01, -0.000000e+00
1386, 2, 3.689146e+02, 0.000000e+00, 3.608047e+00, 0.000000e+00, -3.648371e+01, -0.000000e+00
1386, 3, 3.689146e+02, 0.000000e+00, 3.608047e+00, 0.000000e+00, -3.648371e+01, -0.000000e+00
1386, 4, 3.689146e+02, 0.000000e+00, 3.608047e+00, 0.000000e+00, -3.648371e+01, -0.000000e+00
1386, 5, 3.689146e+02, 0.000000e+00, 3.608047e+00, 0.000000e+00, -3.648371e+01, -0.000000e+00
1386, 6, 3.689146e+02, 0.000000e+00, 3.608047e+00, 0.000000e+00, -3.648371e+01, -0.000000e+00
1386, 7, 3.689146e+02, 0.000000e+00, 3.608047e+00, 0.000000e+00, -3.648371e+01, -0.000000e+00
1386, 8, 3.689146e+02, 0.000000e+00, 3.608047e+00, 0.000000e+00, -3.648371e+01, -0.000000e+00
1387, 1, 3.690072e+02, 0.000000e+00, 3.420258e+00, 0.000000e+00, -3.552604e+01, -0.000000e+00
1387, 2, 3.690072e+02, 0.000000e+00, 3.420258e+00, 0.000000e+00, -3.552604e+01, -0.000000e+00
1387, 3, 3.690072e+02, 0.000000e+00, 3.420258e+00, 0.000000e+00, -3.552604e+01, -0.000000e+00
1387, 4, 3.690072e+02, 0.000000e+00, 3.420258e+00, 0.000000e+00, -3.552604e+01, -0.000000e+00
1387, 5, 3.690072e+02, 0.000000e+00, 3.420258e+00, 0.000000e+00, -3.552604e+01, -0.000000e+00
1387, 6, 3.690072e+02, 0.000000e+00, 3.420258e+00, 0.000000e+00, -3.552604e+01, -0.000000e+00
1387, 7, 3.690072e+02, 0.000000e+00, 3.420258e+00, 0.000000e+00, -3.552604e+01, -0.000000e+00
1387, 8, 3.690072e+02, 0.000000e+00, 3.420258e+00, 0.000000e+00, -3.552604e+01, -0.000000e+00
1388, 1, 3.692924e+02, 0.000000e+00, 2.849358e+00, 0.000000e+00, -3.243835e+01, -0.000000e+00
1388, 2, 3.692924e+02, 0.000000e+00, 2.849358e+00, 0.000000e+00, -3.243835e+01, -0.000000e+00
1388, 3, 3.692924e+02, 0.000000e+00, 2.849358e+00, 0.000000e+00, -3.243835e+01, -0.000000e+00
1388, 4, 3.692924e+02, 0.000000e+00, 2.849358e+00, 0.000000e+00, -3.243835e+01, -0.000000e+00
1388, 5, 3.692924e+02, 0.000000e+00, 2.849358e+00, 0.000000e+00, -3.243835e+01, -0.000000e+00
1388, 6, 3.692924e+02, 0.000000e+00, 2.849358e+00, 0.000000e+00, -3.243835e+01, -0.000000e+00
1388, 7, 3.692924e+02, 0.000000e+00, 2.849358e+00, 0.000000e+00, -3.243835e+01, -0.000000e+00
1388, 8, 3.692924e+02, 0.000000e+00, 2.849358e+00, 0.000000e+00, -3.243835e+01, -0.000000e+00
1389, 1, 3.693757e+02, 0.000000e+00, 2.682750e+00, 0.000000e+00, -3.147924e+01, -0.000000e+00
1389, 2, 3.693757e+02, 0.000000e+00, 2.682750e+00, 0.000000e+00, -3.147924e+01, -0.000000e+00
1389, 3, 3.693757e+02, 0.000000e+00, 2.682750e+00, 0.000000e+00, -3.147924e+01, -0.000000e+00
1389, 4, 3.693757e+02, 0.000000e+00, 2.682750e+00, 0.000000e+00, -3.147924e+01, -0.000000e+00
1389, 5, 3.693757e+02, 0.000000e+00, 2.682750e+00, 0.000000e+00, -3.147924e+01, -0.000000e+00
1389, 6, 3.693757e+02, 0.000000e+00, 2.682750e+00, 0.000000e+00, -3.147924e+01, -0.000000e+00
1389, 7, 3.693757e+02, 0.000000e+00, 2.682750e+00, 0.000000e+00, -3.147924e+01, -0.000000e+00
1389, 8, 3.693757e+02, 0.000000e+00, 2.682750e+00, 0.000000e+00, -3.147924e+01, -0.000000e+00
1390, 1, 3.694551e+02, 0.000000e+00, 2.514128e+00, 0.000000e+00, -3.047717e+01, -0.000000e+00
1390, 2, 3.694551e+02, 0.000000e+00, 2.514128e+00, 0.000000e+00, -3.047717e+01, -0.000000e+00
1390, 3, 3.694551e+02, 0.000000e+00, 2.514128e+00, 0.000000e+00, -3.047717e+01, -0.000000e+00
1390, 4, 3.694551e+02, 0.000000e+00, 2.514128e+00, 0.000000e+00, -3.047717e+01, -0.000000e+00
1390, 5, 3.694551e+02, 0.000000e+00, 2.514128e+00, 0.000000e+00, -3.047717e+01, -0.000000e+00
1390, 6, 3.694551e+02, 0.000000e+00, 2.514128e+00, 0.000000e+00, -3.047717e+01, -0.000000e+00
1390, 7, 3.694551e+02, 0.000000e+00, 2.514128e+00, 0.000000e+00, -3.047717e+01, -0.000000e+00
1390, 8, 3.694551e+02, 0.000000e+00, 2.514128e+00, 0.000000e+00, -3.047717e+01, -0.000000e+00
1391, 1, 3.695342e+02, 0.000000e+00, 2.357689e+00, 0.000000e+00, -2.951689e+01, -0.000000e+00
1391, 2, 3.695342e+02, 0.000000e+00, 2.357689e+00, 0.000000e+00, -2.951689e+01, -0.000000e+00
1391, 3, 3.695342e+02, 0.000000e+00, 2.357689e+00, 0.000000e+00, -2.951689e+01, -0.000000e+00
1391, 4, 3.695342e+02, 0.000000e+00, 2.357689e+00, 0.000000e+00, -2.951689e+01, -0.000000e+00
1391, 5, 3.695342e+02, 0.000000e+00, 2.357689e+00, 0.000000e+00, -2.951689e+01, -0.000000e+00
1391, 6, 3.695342e+02, 0.000000e+00, 2.357689e+00, 0.000000e+00, -2.951689e+01, -0.000000e+00
1391, 7, 3.695342e+02, 0.000000e+00, 2.357689e+00, 0.000000e+00, -2.951689e+01, -0.000000e+00
1391, 8, 3.695342e+02, 0.000000e+00, 2.357689e+00, 0.000000e+00, -2.951689e+01, -0.000000e+00
1392, 1, 3.695779e+02, 0.000000e+00, 2.278327e+00, 0.000000e+00, -2.901757e+01, -0.000000e+00
1392, 2, 3.695779e+02, 0.000000e+00, 2.278327e+00, 0.000000e+00, -2.901757e+01, -0.000000e+00
1392, 3, 3.695779e+02, 0.000000e+00, 2.278327e+00, 0.000000e+00, -2.901757e+01, -0.000000e+00
1392, 4, 3.695779e+02, 0.000000e+00, 2.278327e+00, 0.000000e+00, -2.901757e+01, -0.000000e+00
1392, 5, 3.695779e+02, 0.000000e+00, 2.278327e+00, 0.000000e+00, -2.901757e+01, -0.000000e+00
1392, 6, 3.695779e+02, 0.000000e+00, 2.278327e+00, 0.000000e+00, -2.901757e+01, -0.000000e+00
1392, 7, 3.695779e+02, 0.000000e+00, 2.278327e+00, 0.000000e+00, -2.901757e+01, -0.000000e+00
1392, 8, 3.695779e+02, 0.000000e+00, 2.278327e+00, 0.000000e+00, -2.901757e+01, -0.000000e+00
1393, 1, 3.572012e+02, 0.000000e+00, 2.753137e+01, 0.000000e+00, -9.916774e+01, -0.000000e+00
1393, 2, 3.572012e+02, 0.000000e+00, 2.753137e+01, 0.000000e+00, -9.916774e+01, -0.000000e+00
1393, 3, 3.572012e+02, 0.000000e+00, 2.753137e+01, 0.000000e+00, -9.916774e+01, -0.000000e+00
1393, 4, 3.572012e+02, 0.000000e+00, 2.753137e+01, 0.000000e+00, -9.916774e+01, -0.000000e+00
1393, 5, 3.572012e+02, 0.000000e+00, 2.753137e+01, 0.000000e+00, -9.916774e+01, -0.000000e+00
1393, 6, 3.572012e+02, 0.000000e+00, 2.753137e+01, 0.000000e+00, -9.916774e+01, -0.000000e+00
1393, 7, 3.572012e+02, 0.000000e+00, 2.753137e+01, 0.000000e+00, -9.916774e+01, -0.000000e+00
1393, 8, 3.572012e+02, 0.000000e+00, 2.753137e+01, 0.000000e+00, -9.916774e+01, -0.000000e+00
1394, 1, 3.577523e+02, 0.000000e+00, 2.640309e+01, 0.000000e+00, -9.718932e+01, -0.000000e+00
1394, 2, 3.577523e+02, 0.000000e+00, 2.640309e+01, 0.000000e+00, -9.718932e+01, -0.000000e+00
1394, 3, 3.577523e+02, 0.000000e+00, 2.640309e+01, 0.000000e+00, -9.718932e+01, -0.000000e+00
1394, 4, 3.577523e+02, 0.000000e+00, 2.640309e+01, 0.000000e+00, -9.718932e+01, -0.000000e+00
1394, 5, 3.577523e+02, 0.000000e+00, 2.640309e+01, 0.000000e+00, -9.718932e+01, -0.000000e+00
1394, 6, 3.577523e+02, 0.000000e+00, 2.640309e+01, 0.000000e+00, -9.718932e+01, -0.000000e+00
1394, 7, 3.577523e+02, 0.000000e+00, 2.640309e+01, 0.000000e+00, -9.718932e+01, -0.000000e+00
1394, 8, 3.577523e+02, 0.000000e+00, 2.640309e+01, 0.000000e+00, -9.718932e+01, -0.000000e+00
*BOUNDARY
1, 1, 1
1, 2, 2
1, 3, 3
154, 1, 1
154, 2, 2
154, 3, 3
450, 1, 1
450, 2, 2
450, 3, 3
728, 1, 1
728, 2, 2
728, 3, 3
729, 1, 1
729, 2, 2
729, 3, 3
730, 1, 1
730, 2, 2
730, 3, 3
1001, 1, 1
1001, 2, 2
1001, 3, 3
1066, 1, 1
1066, 2, 2
1066, 3, 3
1280, 1, 1
1280, 2, 2
1280, 3, 3
1395, 1, 1
1395, 2, 2
1395, 3, 3
3, 2, 2
3, 3, 3
6, 2, 2
6, 3, 3
157, 2, 2
157, 3, 3
447, 2, 2
447, 3, 3
608, 2, 2
608, 3, 3
723, 2, 2
723, 3, 3
726, 2, 2
726, 3, 3
1003, 2, 2
1003, 3, 3
1063, 2, 2
1063, 3, 3
1283, 2, 2
1283, 3, 3
1347, 2, 2
1347, 3, 3
1393, 2, 2
1393, 3, 3
*BOUNDARY
1, 1, 3
2, 1, 3
3, 1, 3
4, 1, 3
5, 1, 3
6, 1, 3
7, 1, 3
8, 1, 3
9, 1, 3
10, 1, 3
11, 1, 3
12, 1, 3
13, 1, 3
14, 1, 3
15, 1, 3
16, 1, 3
17, 1, 3
18, 1, 3
19, 1, 3
20, 1, 3
21, 1, 3
22, 1, 3
23, 1, 3
24, 1, 3
25, 1, 3
26, 1, 3
27, 1, 3
28, 1, 3
29, 1, 3
30, 1, 3
31, 1, 3
32, 1, 3
33, 1, 3
34, 1, 3
35, 1, 3
36, 1, 3
37, 1, 3
38, 1, 3
39, 1, 3
40, 1, 3
41, 1, 3
42, 1, 3
43, 1, 3
44, 1, 3
45, 1, 3
46, 1, 3
47, 1, 3
48, 1, 3
49, 1, 3
50, 1, 3
51, 1, 3
52, 1, 3
53, 1, 3
54, 1, 3
55, 1, 3
56, 1, 3
57, 1, 3
58, 1, 3
59, 1, 3
60, 1, 3
61, 1, 3
62, 1, 3
63, 1, 3
64, 1, 3
65, 1, 3
66, 1, 3
67, 1, 3
68, 1, 3
69, 1, 3
70, 1, 3
71, 1, 3
72, 1, 3
73, 1, 3
74, 1, 3
75, 1, 3
76, 1, 3
77, 1, 3
78, 1, 3
79, 1, 3
80, 1, 3
81, 1, 3
82, 1, 3
83, 1, 3
84, 1, 3
85, 1, 3
86, 1, 3
87, 1, 3
88, 1, 3
89, 1, 3
90, 1, 3
91, 1, 3
92, 1, 3
93, 1, 3
94, 1, 3
95, 1, 3
96, 1, 3
97, 1, 3
98, 1, 3
99, 1, 3
100, 1, 3
101, 1, 3
102, 1, 3
103, 1, 3
104, 1, 3
105, 1, 3
106, 1, 3
107, 1, 3
108, 1, 3
109, 1, 3
110, 1, 3
111, 1, 3
112, 1, 3
113, 1, 3
114, 1, 3
115, 1, 3
116, 1, 3
117, 1, 3
118, 1, 3
119, 1, 3
120, 1, 3
121, 1, 3
122, 1, 3
123, 1, 3
124, 1, 3
125, 1, 3
126, 1, 3
127, 1, 3
128, 1, 3
129, 1, 3
130, 1, 3
131, 1, 3
132, 1, 3
133, 1, 3
134, 1, 3
135, 1, 3
136, 1, 3
137, 1, 3
138, 1, 3
139, 1, 3
140, 1, 3
141, 1, 3
142, 1, 3
143, 1, 3
144, 1, 3
145, 1, 3
146, 1, 3
147, 1, 3
148, 1, 3
149, 1, 3
150, 1, 3
151, 1, 3
152, 1, 3
153, 1, 3
154, 1, 3
155, 1, 3
156, 1, 3
448, 1, 3
449, 1, 3
450, 1, 3
451, 1, 3
452, 1, 3
453, 1, 3
454, 1, 3
455, 1, 3
456, 1, 3
457, 1, 3
458, 1, 3
459, 1, 3
460, 1, 3
461, 1, 3
462, 1, 3
463, 1, 3
464, 1, 3
465, 1, 3
466, 1, 3
467, 1, 3
468, 1, 3
469, 1, 3
470, 1, 3
471, 1, 3
472, 1, 3
473, 1, 3
474, 1, 3
475, 1, 3
476, 1, 3
477, 1, 3
478, 1, 3
479, 1, 3
480, 1, 3
481, 1, 3
482, 1, 3
483, 1, 3
484, 1, 3
485, 1, 3
486, 1, 3
487, 1, 3
488, 1, 3
489, 1, 3
490, 1, 3
491, 1, 3
492, 1, 3
493, 1, 3
494, 1, 3
495, 1, 3
496, 1, 3
497, 1, 3
498, 1, 3
499, 1, 3
500, 1, 3
501, 1, 3
502, 1, 3
503, 1, 3
504, 1, 3
505, 1, 3
506, 1, 3
507, 1, 3
508, 1, 3
509, 1, 3
510, 1, 3
511, 1, 3
512, 1, 3
513, 1, 3
514, 1, 3
515, 1, 3
516, 1, 3
517, 1, 3
518, 1, 3
519, 1, 3
520, 1, 3
521, 1, 3
522, 1, 3
523, 1, 3
524, 1, 3
525, 1, 3
526, 1, 3
527, 1, 3
528, 1, 3
529, 1, 3
530, 1, 3
531, 1, 3
532, 1, 3
533, 1, 3
534, 1, 3
535, 1, 3
536, 1, 3
537, 1, 3
538, 1, 3
539, 1, 3
540, 1, 3
541, 1, 3
542, 1, 3
543, 1, 3
544, 1, 3
545, 1, 3
546, 1, 3
547, 1, 3
548, 1, 3
549, 1, 3
550, 1, 3
551, 1, 3
552, 1, 3
553, 1, 3
554, 1, 3
555, 1, 3
556, 1, 3
557, 1, 3
558, 1, 3
559, 1, 3
560, 1, 3
561, 1, 3
562, 1, 3
563, 1, 3
564, 1, 3
565, 1, 3
566, 1, 3
567, 1, 3
568, 1, 3
569, 1, 3
570, 1, 3
571, 1, 3
572, 1, 3
573, 1, 3
574, 1, 3
575, 1, 3
576, 1, 3
577, 1, 3
578, 1, 3
579, 1, 3
580, 1, 3
581, 1, 3
582, 1, 3
583, 1, 3
584, 1, 3
585, 1, 3
586, 1, 3
587, 1, 3
588, 1, 3
589, 1, 3
590, 1, 3
591, 1, 3
592, 1, 3
593, 1, 3
594, 1, 3
595, 1, 3
596, 1, 3
597, 1, 3
598, 1, 3
599, 1, 3
600, 1, 3
601, 1, 3
602, 1, 3
603, 1, 3
604, 1, 3
605, 1, 3
606, 1, 3
607, 1, 3
608, 1, 3
609, 1, 3
610, 1, 3
611, 1, 3
612, 1, 3
613, 1, 3
614, 1, 3
615, 1, 3
616, 1, 3
617, 1, 3
618, 1, 3
619, 1, 3
620, 1, 3
621, 1, 3
622, 1, 3
623, 1, 3
624, 1, 3
625, 1, 3
626, 1, 3
627, 1, 3
628, 1, 3
629, 1, 3
630, 1, 3
631, 1, 3
632, 1, 3
633, 1, 3
634, 1, 3
635, 1, 3
636, 1, 3
637, 1, 3
638, 1, 3
639, 1, 3
640, 1, 3
641, 1, 3
642, 1, 3
643, 1, 3
644, 1, 3
645, 1, 3
646, 1, 3
647, 1, 3
648, 1, 3
649, 1, 3
650, 1, 3
651, 1, 3
652, 1, 3
653, 1, 3
654, 1, 3
655, 1, 3
656, 1, 3
657, 1, 3
658, 1, 3
659, 1, 3
660, 1, 3
661, 1, 3
662, 1, 3
663, 1, 3
664, 1, 3
665, 1, 3
666, 1, 3
667, 1, 3
668, 1, 3
669, 1, 3
670, 1, 3
671, 1, 3
672, 1, 3
673, 1, 3
674, 1, 3
675, 1, 3
676, 1, 3
677, 1, 3
678, 1, 3
679, 1, 3
680, 1, 3
681, 1, 3
682, 1, 3
683, 1, 3
684, 1, 3
685, 1, 3
686, 1, 3
687, 1, 3
688, 1, 3
689, 1, 3
690, 1, 3
691, 1, 3
692, 1, 3
693, 1, 3
694, 1, 3
695, 1, 3
696, 1, 3
697, 1, 3
698, 1, 3
699, 1, 3
700, 1, 3
701, 1, 3
702, 1, 3
703, 1, 3
704, 1, 3
705, 1, 3
706, 1, 3
707, 1, 3
708, 1, 3
709, 1, 3
710, 1, 3
711, 1, 3
712, 1, 3
713, 1, 3
714, 1, 3
715, 1, 3
716, 1, 3
717, 1, 3
718, 1, 3
719, 1, 3
720, 1, 3
721, 1, 3
722, 1, 3
723, 1, 3
724, 1, 3
725, 1, 3
726, 1, 3
727, 1, 3
728, 1, 3
1001, 1, 3
1002, 1, 3
1003, 1, 3
1004, 1, 3
1005, 1, 3
1006, 1, 3
1007, 1, 3
1008, 1, 3
1009, 1, 3
1010, 1, 3
1011, 1, 3
1012, 1, 3
1013, 1, 3
1014, 1, 3
1015, 1, 3
1016, 1, 3
1017, 1, 3
1018, 1, 3
1019, 1, 3
1020, 1, 3
1021, 1, 3
1022, 1, 3
1023, 1, 3
1024, 1, 3
1025, 1, 3
1026, 1, 3
1027, 1, 3
1028, 1, 3
1029, 1, 3
1030, 1, 3
1031, 1, 3
1032, 1, 3
1033, 1, 3
1034, 1, 3
1035, 1, 3
1036, 1, 3
1037, 1, 3
1038, 1, 3
1039, 1, 3
1040, 1, 3
1041, 1, 3
1042, 1, 3
1043, 1, 3
1044, 1, 3
1045, 1, 3
1046, 1, 3
1047, 1, 3
1048, 1, 3
1049, 1, 3
1050, 1, 3
1051, 1, 3
1052, 1, 3
1053, 1, 3
1054, 1, 3
1055, 1, 3
1056, 1, 3
1057, 1, 3
1058, 1, 3
1059, 1, 3
1060, 1, 3
1061, 1, 3
1062, 1, 3
1284, 1, 3
1285, 1, 3
1286, 1, 3
1287, 1, 3
1288, 1, 3
1289, 1, 3
1290, 1, 3
1291, 1, 3
1292, 1, 3
1293, 1, 3
1294, 1, 3
1295, 1, 3
1296, 1, 3
1297, 1, 3
1298, 1, 3
1299, 1, 3
1300, 1, 3
1301, 1, 3
1302, 1, 3
1303, 1, 3
1304, 1, 3
1305, 1, 3
1306, 1, 3
1307, 1, 3
1308, 1, 3
1309, 1, 3
1310, 1, 3
1311, 1, 3
1312, 1, 3
1313, 1, 3
1314, 1, 3
1315, 1, 3
1316, 1, 3
1317, 1, 3
1318, 1, 3
1319, 1, 3
1320, 1, 3
1321, 1, 3
1322, 1, 3
1323, 1, 3
1324, 1, 3
1325, 1, 3
1326, 1, 3
1327, 1, 3
1328, 1, 3
1329, 1, 3
1330, 1, 3
1331, 1, 3
1332, 1, 3
1333, 1, 3
1334, 1, 3
1335, 1, 3
1336, 1, 3
1337, 1, 3
1338, 1, 3
1339, 1, 3
1340, 1, 3
1341, 1, 3
1342, 1, 3
1343, 1, 3
1344, 1, 3
1345, 1, 3
1346, 1, 3
1347, 1, 3
1348, 1, 3
1349, 1, 3
1350, 1, 3
1351, 1, 3
1352, 1, 3
1353, 1, 3
1354, 1, 3
1355, 1, 3
1356, 1, 3
1357, 1, 3
1358, 1, 3
1359, 1, 3
1360, 1, 3
1361, 1, 3
1362, 1, 3
1363, 1, 3
1364, 1, 3
1365, 1, 3
1366, 1, 3
1367, 1, 3
1368, 1, 3
1369, 1, 3
1370, 1, 3
1371, 1, 3
1372, 1, 3
1373, 1, 3
1374, 1, 3
1375, 1, 3
1376, 1, 3
1377, 1, 3
1378, 1, 3
1379, 1, 3
1380, 1, 3
1381, 1, 3
1382, 1, 3
1383, 1, 3
1384, 1, 3
1385, 1, 3
1386, 1, 3
1387, 1, 3
1388, 1, 3
1389, 1, 3
1390, 1, 3
1391, 1, 3
1392, 1, 3
1393, 1, 3
1394, 1, 3
1395, 1, 3
*STEP, NLGEOM
*STATIC
*DLOAD
E_CABLE, GRAV, 9806, 0.0, 0.0, -1.0
E_FRAME, GRAV, 9806, 0.0, 0.0, -1.0
*CLOAD
1, 3, -0.01
2, 3, -0.01
3, 3, -0.01
4, 3, -0.01
5, 3, -0.01
6, 3, -0.01
7, 3, -0.01
8, 3, -62715.3
9, 3, -2530
10, 3, -1320
11, 3, -1210
12, 3, -1320
13, 3, -2530
14, 3, -1320
15, 3, -1210
16, 3, -4500
17, 3, -2530
18, 3, -1320
19, 3, -1210
20, 3, -1320
21, 3, -2530
22, 3, -1320
23, 3, -1210
24, 3, -1320
25, 3, -2530
26, 3, -1320
27, 3, -1210
28, 3, -1320
29, 3, -3180
30, 3, -2530
31, 3, -1320
32, 3, -1210
33, 3, -1320
34, 3, -2530
35, 3, -1320
36, 3, -1210
37, 3, -1320
38, 3, -2530
39, 3, -1320
40, 3, -1210
41, 3, -1320
42, 3, -70120
43, 3, -1320
44, 3, -1210
45, 3, -1320
46, 3, -2530
47, 3, -1320
48, 3, -1210
49, 3, -1320
50, 3, -2530
51, 3, -1320
52, 3, -1210
53, 3, -1320
54, 3, -2530
55, 3, -3180
56, 3, -1320
57, 3, -1210
58, 3, -1320
59, 3, -2530
60, 3, -1320
61, 3, -1210
62, 3, -1320
63, 3, -2530
64, 3, -1320
65, 3, -1210
66, 3, -1320
67, 3, -2530
68, 3, -4500
69, 3, -1210
70, 3, -1320
71, 3, -2530
72, 3, -1320
73, 3, -1210
74, 3, -1320
75, 3, -2530
76, 3, -1320
77, 3, -1210
78, 3, -1320
79, 3, -2530
80, 3, -1320
81, 3, -68800
82, 3, -1320
83, 3, -2530
84, 3, -1320
85, 3, -1210
86, 3, -1320
87, 3, -2530
88, 3, -1320
89, 3, -1210
90, 3, -1320
91, 3, -2530
92, 3, -1320
93, 3, -1210
94, 3, -4500
95, 3, -2530
96, 3, -1320
97, 3, -1210
98, 3, -1320
99, 3, -2530
100, 3, -1320
101, 3, -1210
102, 3, -1320
103, 3, -2530
104, 3, -1320
105, 3, -1210
106, 3, -1320
107, 3, -3180
108, 3, -2530
109, 3, -1320
110, 3, -1210
111, 3, -1320
112, 3, -2530
113, 3, -1320
114, 3, -1210
115, 3, -1320
116, 3, -2530
117, 3, -1320
118, 3, -1210
119, 3, -1320
120, 3, -70120
121, 3, -1320
122, 3, -1210
123, 3, -1320
124, 3, -2530
125, 3, -1320
126, 3, -1210
127, 3, -1320
128, 3, -2530
129, 3, -1320
130, 3, -1210
131, 3, -1320
132, 3, -2530
133, 3, -3180
134, 3, -1320
135, 3, -1210
136, 3, -1320
137, 3, -2530
138, 3, -1320
139, 3, -1210
140, 3, -1320
141, 3, -2530
142, 3, -1320
143, 3, -1210
144, 3, -1320
145, 3, -2530
146, 3, -4500
147, 3, -1210
148, 3, -1320
149, 3, -2530
150, 3, -1320
151, 3, -67983.3
152, 3, -0.01
153, 3, -0.01
154, 3, -0.01
155, 3, -0.01
156, 3, -0.01
157, 3, -0.01
158, 3, -0.01
159, 3, -0.01
160, 3, -67983.3
161, 3, -2530
162, 3, -2530
163, 3, -2530
164, 3, -2530
165, 3, -2530
166, 3, -3180
167, 3, -2530
168, 3, -2530
169, 3, -2530
170, 3, -2530
171, 3, -2530
172, 3, -2530
173, 3, -3180
174, 3, -2530
175, 3, -2530
176, 3, -2530
177, 3, -2530
178, 3, -2530
179, 3, -2530
180, 3, -70120
181, 3, -2530
182, 3, -2530
183, 3, -2530
184, 3, -2530
185, 3, -2530
186, 3, -2530
187, 3, -3180
188, 3, -2530
189, 3, -2530
190, 3, -2530
191, 3, -2530
192, 3, -2530
193, 3, -2530
194, 3, -3180
195, 3, -2530
196, 3, -2530
197, 3, -2530
198, 3, -2530
199, 3, -2530
200, 3, -2530
201, 3, -70120
202, 3, -2530
203, 3, -2530
204, 3, -2530
205, 3, -2530
206, 3, -2530
207, 3, -2530
208, 3, -3180
209, 3, -2530
210, 3, -2530
211, 3, -2530
212, 3, -2530
213, 3, -2530
214, 3, -2530
215, 3, -3180
216, 3, -2530
217, 3, -2530
218, 3, -2530
219, 3, -2530
220, 3, -2530
221, 3, -2530
222, 3, -70120
223, 3, -2530
224, 3, -2530
225, 3, -2530
226, 3, -2530
227, 3, -2530
228, 3, -2530
229, 3, -3180
230, 3, -2530
231, 3, -2530
232, 3, -2530
233, 3, -2530
234, 3, -2530
235, 3, -2530
236, 3, -3180
237, 3, -2530
238, 3, -2530
239, 3, -2530
240, 3, -2530
241, 3, -2530
242, 3, -2530
243, 3, -70120
244, 3, -2530
245, 3, -2530
246, 3, -2530
247, 3, -2530
248, 3, -2530
249, 3, -3180
250, 3, -2530
251, 3, -2530
252, 3, -2530
253, 3, -2530
254, 3, -2530
255, 3, -2530
256, 3, -3180
257, 3, -2530
258, 3, -2530
259, 3, -2530
260, 3, -2530
261, 3, -2530
262, 3, -67590
263, 3, -2530
264, 3, -2530
265, 3, -2530
266, 3, -2530
267, 3, -2530
268, 3, -2530
269, 3, -3180
270, 3, -2530
271, 3, -2530
272, 3, -2530
273, 3, -2530
274, 3, -2530
275, 3, -2530
276, 3, -3180
277, 3, -2530
278, 3, -2530
279, 3, -2530
280, 3, -2530
281, 3, -2530
282, 3, -2530
283, 3, -67590
284, 3, -2530
285, 3, -2530
286, 3, -2530
287, 3, -2530
288, 3, -2530
289, 3, -3180
290, 3, -2530
291, 3, -2530
292, 3, -2530
293, 3, -2530
294, 3, -2530
295, 3, -2530
296, 3, -3180
297, 3, -2530
298, 3, -2530
299, 3, -2530
300, 3, -2530
301, 3, -2530
302, 3, -70120
303, 3, -2530
304, 3, -2530
305, 3, -2530
306, 3, -2530
307, 3, -2530
308, 3, -3180
309, 3, -2530
310, 3, -2530
311, 3, -2530
312, 3, -2530
313, 3, -2530
314, 3, -2530
315, 3, -3180
316, 3, -2530
317, 3, -2530
318, 3, -2530
319, 3, -2530
320, 3, -2530
321, 3, -67590
322, 3, -2530
323, 3, -2530
324, 3, -2530
325, 3, -2530
326, 3, -2530
327, 3, -2530
328, 3, -3180
329, 3, -2530
330, 3, -2530
331, 3, -2530
332, 3, -2530
333, 3, -2530
334, 3, -2530
335, 3, -3180
336, 3, -2530
337, 3, -2530
338, 3, -2530
339, 3, -2530
340, 3, -2530
341, 3, -2530
342, 3, -67590
343, 3, -2530
344, 3, -2530
345, 3, -2530
346, 3, -2530
347, 3, -2530
348, 3, -3180
349, 3, -2530
350, 3, -2530
351, 3, -2530
352, 3, -2530
353, 3, -2530
354, 3, -2530
355, 3, -3180
356, 3, -2530
357, 3, -2530
358, 3, -2530
359, 3, -2530
360, 3, -2530
361, 3, -70120
362, 3, -2530
363, 3, -2530
364, 3, -2530
365, 3, -2530
366, 3, -2530
367, 3, -2530
368, 3, -3180
369, 3, -2530
370, 3, -2530
371, 3, -2530
372, 3, -2530
373, 3, -2530
374, 3, -2530
375, 3, -3180
376, 3, -2530
377, 3, -2530
378, 3, -2530
379, 3, -2530
380, 3, -2530
381, 3, -2530
382, 3, -70120
383, 3, -2530
384, 3, -2530
385, 3, -2530
386, 3, -2530
387, 3, -2530
388, 3, -2530
389, 3, -3180
390, 3, -2530
391, 3, -2530
392, 3, -2530
393, 3, -2530
394, 3, -2530
395, 3, -2530
396, 3, -3180
397, 3, -2530
398, 3, -2530
399, 3, -2530
400, 3, -2530
401, 3, -2530
402, 3, -2530
403, 3, -70120
404, 3, -2530
405, 3, -2530
406, 3, -2530
407, 3, -2530
408, 3, -2530
409, 3, -2530
410, 3, -3180
411, 3, -2530
412, 3, -2530
413, 3, -2530
414, 3, -2530
415, 3, -2530
416, 3, -2530
417, 3, -3180
418, 3, -2530
419, 3, -2530
420, 3, -2530
421, 3, -2530
422, 3, -2530
423, 3, -2530
424, 3, -70120
425, 3, -2530
426, 3, -2530
427, 3, -2530
428, 3, -2530
429, 3, -2530
430, 3, -2530
431, 3, -3180
432, 3, -2530
433, 3, -2530
434, 3, -2530
435, 3, -2530
436, 3, -2530
437, 3, -2530
438, 3, -3180
439, 3, -2530
440, 3, -2530
441, 3, -2530
442, 3, -2530
443, 3, -2530
444, 3, -67983.3
445, 3, -0.01
446, 3, -0.01
447, 3, -0.01
448, 3, -0.01
449, 3, -0.01
450, 3, -0.01
451, 3, -0.01
452, 3, -0.01
453, 3, -67983.3
454, 3, -1210
455, 3, -1320
456, 3, -2530
457, 3, -1320
458, 3, -1210
459, 3, -1320
460, 3, -2530
461, 3, -4500
462, 3, -1210
463, 3, -1320
464, 3, -2530
465, 3, -1320
466, 3, -1210
467, 3, -1320
468, 3, -2530
469, 3, -1320
470, 3, -1210
471, 3, -1320
472, 3, -2530
473, 3, -1320
474, 3, -1210
475, 3, -4500
476, 3, -2530
477, 3, -1320
478, 3, -1210
479, 3, -1320
480, 3, -2530
481, 3, -1320
482, 3, -1210
483, 3, -1320
484, 3, -2530
485, 3, -1320
486, 3, -1210
487, 3, -1320
488, 3, -70120
489, 3, -1320
490, 3, -1210
491, 3, -1320
492, 3, -2530
493, 3, -1320
494, 3, -1210
495, 3, -1320
496, 3, -2530
497, 3, -1320
498, 3, -1210
499, 3, -1320
500, 3, -2530
501, 3, -4500
502, 3, -1210
503, 3, -1320
504, 3, -2530
505, 3, -1320
506, 3, -1210
507, 3, -1320
508, 3, -2530
509, 3, -1320
510, 3, -1210
511, 3, -1320
512, 3, -2530
513, 3, -1320
514, 3, -1210
515, 3, -4500
516, 3, -2530
517, 3, -1320
518, 3, -1210
519, 3, -1320
520, 3, -2530
521, 3, -1320
522, 3, -1210
523, 3, -1320
524, 3, -2530
525, 3, -1320
526, 3, -1210
527, 3, -1320
528, 3, -70120
529, 3, -1320
530, 3, -1210
531, 3, -1320
532, 3, -2530
533, 3, -1320
534, 3, -1210
535, 3, -1320
536, 3, -2530
537, 3, -1320
538, 3, -1210
539, 3, -1320
540, 3, -2530
541, 3, -4500
542, 3, -1210
543, 3, -1320
544, 3, -2530
545, 3, -1320
546, 3, -1210
547, 3, -1320
548, 3, -2530
549, 3, -1320
550, 3, -1210
551, 3, -1320
552, 3, -2530
553, 3, -1320
554, 3, -1210
555, 3, -4500
556, 3, -2530
557, 3, -1320
558, 3, -1210
559, 3, -1320
560, 3, -2530
561, 3, -1320
562, 3, -1210
563, 3, -1320
564, 3, -2530
565, 3, -1320
566, 3, -1210
567, 3, -1320
568, 3, -70120
569, 3, -1320
570, 3, -1210
571, 3, -1320
572, 3, -2530
573, 3, -1320
574, 3, -1210
575, 3, -1320
576, 3, -2530
577, 3, -1320
578, 3, -1210
579, 3, -1320
580, 3, -2530
581, 3, -4500
582, 3, -1210
583, 3, -1320
584, 3, -2530
585, 3, -1320
586, 3, -1210
587, 3, -1320
588, 3, -2530
589, 3, -1320
590, 3, -1210
591, 3, -1320
592, 3, -2530
593, 3, -1320
594, 3, -1210
595, 3, -4500
596, 3, -2530
597, 3, -1320
598, 3, -1210
599, 3, -1320
600, 3, -2530
601, 3, -1320
602, 3, -1210
603, 3, -1320
604, 3, -2530
605, 3, -62223.7
606, 3, -0.01
607, 3, -0.01
608, 3, -0.01
609, 3, -0.01
610, 3, -0.01
611, 3, -62113.7
612, 3, -1320
613, 3, -2530
614, 3, -1320
615, 3, -1210
616, 3, -1320
617, 3, -2530
618, 3, -1320
619, 3, -1210
620, 3, -4500
621, 3, -2530
622, 3, -1320
623, 3, -1210
624, 3, -1320
625, 3, -2530
626, 3, -1320
627, 3, -1210
628, 3, -1320
629, 3, -2530
630, 3, -1320
631, 3, -1210
632, 3, -1320
633, 3, -3180
634, 3, -2530
635, 3, -1320
636, 3, -1210
637, 3, -1320
638, 3, -2530
639, 3, -1320
640, 3, -1210
641, 3, -1320
642, 3, -2530
643, 3, -1320
644, 3, -1210
645, 3, -1320
646, 3, -70120
647, 3, -1320
648, 3, -1210
649, 3, -1320
650, 3, -2530
651, 3, -1320
652, 3, -1210
653, 3, -1320
654, 3, -2530
655, 3, -1320
656, 3, -1210
657, 3, -1320
658, 3, -2530
659, 3, -3180
660, 3, -1320
661, 3, -1210
662, 3, -1320
663, 3, -2530
664, 3, -1320
665, 3, -1210
666, 3, -1320
667, 3, -2530
668, 3, -1320
669, 3, -1210
670, 3, -1320
671, 3, -2530
672, 3, -4500
673, 3, -1210
674, 3, -1320
675, 3, -2530
676, 3, -1320
677, 3, -1210
678, 3, -1320
679, 3, -2530
680, 3, -1320
681, 3, -1210
682, 3, -1320
683, 3, -2530
684, 3, -1320
685, 3, -68800
686, 3, -1320
687, 3, -2530
688, 3, -1320
689, 3, -1210
690, 3, -1320
691, 3, -2530
692, 3, -1320
693, 3, -1210
694, 3, -1320
695, 3, -2530
696, 3, -1320
697, 3, -1210
698, 3, -4500
699, 3, -2530
700, 3, -1320
701, 3, -1210
702, 3, -1320
703, 3, -2530
704, 3, -1320
705, 3, -1210
706, 3, -1320
707, 3, -2530
708, 3, -1320
709, 3, -1210
710, 3, -1320
711, 3, -3180
712, 3, -2530
713, 3, -1320
714, 3, -1210
715, 3, -1320
716, 3, -2530
717, 3, -1320
718, 3, -1210
719, 3, -1320
720, 3, -2530
721, 3, -62715.3
722, 3, -0.01
723, 3, -0.01
724, 3, -0.01
725, 3, -0.01
726, 3, -0.01
727, 3, -0.01
728, 3, -0.01
1001, 3, -0.001
1002, 3, -0.001
1003, 3, -0.001
1004, 3, -0.001
1005, 3, -0.001
1006, 3, -0.001
1007, 3, -0.001
1008, 3, -18123
1009, 3, -0.001
1010, 3, -0.001
1011, 3, -0.001
1012, 3, -0.001
1013, 3, -18123
1014, 3, -0.001
1015, 3, -0.001
1016, 3, -0.001
1017, 3, -0.001
1018, 3, -21556
1019, 3, -0.001
1020, 3, -0.001
1021, 3, -0.001
1022, 3, -0.001
1023, 3, -18123
1024, 3, -0.001
1025, 3, -0.001
1026, 3, -0.001
1027, 3, -0.001
1028, 3, -18123
1029, 3, -0.001
1030, 3, -0.001
1031, 3, -0.001
1032, 3, -0.001
1033, 3, -21556
1034, 3, -0.001
1035, 3, -0.001
1036, 3, -0.001
1037, 3, -0.001
1038, 3, -18123
1039, 3, -0.001
1040, 3, -0.001
1041, 3, -0.001
1042, 3, -0.001
1043, 3, -18123
1044, 3, -0.001
1045, 3, -0.001
1046, 3, -0.001
1047, 3, -0.001
1048, 3, -21556
1049, 3, -0.001
1050, 3, -0.001
1051, 3, -0.001
1052, 3, -0.001
1053, 3, -18123
1054, 3, -0.001
1055, 3, -0.001
1056, 3, -0.001
1057, 3, -0.001
1058, 3, -18123
1059, 3, -0.001
1060, 3, -0.001
1061, 3, -0.001
1062, 3, -0.001
1063, 3, -0.001
1064, 3, -0.001
1065, 3, -0.001
1066, 3, -0.001
1067, 3, -0.001
1068, 3, -0.001
1069, 3, -0.001
1070, 3, -0.001
1071, 3, -0.001
1072, 3, -0.001
1073, 3, -18123
1074, 3, -0.001
1075, 3, -0.001
1076, 3, -0.001
1077, 3, -0.001
1078, 3, -18123
1079, 3, -0.001
1080, 3, -0.001
1081, 3, -0.001
1082, 3, -0.001
1083, 3, -21556
1084, 3, -0.001
1085, 3, -0.001
1086, 3, -0.001
1087, 3, -0.001
1088, 3, -18123
1089, 3, -0.001
1090, 3, -0.001
1091, 3, -0.001
1092, 3, -0.001
1093, 3, -18123
1094, 3, -0.001
1095, 3, -0.001
1096, 3, -0.001
1097, 3, -0.001
1098, 3, -21556
1099, 3, -0.001
1100, 3, -0.001
1101, 3, -0.001
1102, 3, -0.001
1103, 3, -18123
1104, 3, -0.001
1105, 3, -0.001
1106, 3, -0.001
1107, 3, -0.001
1108, 3, -18123
1109, 3, -0.001
1110, 3, -0.001
1111, 3, -0.001
1112, 3, -0.001
1113, 3, -21556
1114, 3, -0.001
1115, 3, -0.001
1116, 3, -0.001
1117, 3, -0.001
1118, 3, -18123
1119, 3, -0.001
1120, 3, -0.001
1121, 3, -0.001
1122, 3, -0.001
1123, 3, -18123
1124, 3, -0.001
1125, 3, -0.001
1126, 3, -0.001
1127, 3, -0.001
1128, 3, -21556
1129, 3, -0.001
1130, 3, -0.001
1131, 3, -0.001
1132, 3, -0.001
1133, 3, -18123
1134, 3, -0.001
1135, 3, -0.001
1136, 3, -0.001
1137, 3, -0.001
1138, 3, -18123
1139, 3, -0.001
1140, 3, -0.001
1141, 3, -0.001
1142, 3, -0.001
1143, 3, -21556
1144, 3, -0.001
1145, 3, -0.001
1146, 3, -0.001
1147, 3, -0.001
1148, 3, -18123
1149, 3, -0.001
1150, 3, -0.001
1151, 3, -0.001
1152, 3, -0.001
1153, 3, -18123
1154, 3, -0.001
1155, 3, -0.001
1156, 3, -0.001
1157, 3, -0.001
1158, 3, -21556
1159, 3, -0.001
1160, 3, -0.001
1161, 3, -0.001
1162, 3, -0.001
1163, 3, -18123
1164, 3, -0.001
1165, 3, -0.001
1166, 3, -0.001
1167, 3, -0.001
1168, 3, -18123
1169, 3, -0.001
1170, 3, -0.001
1171, 3, -0.001
1172, 3, -0.001
1173, 3, -21556
1174, 3, -0.001
1175, 3, -0.001
1176, 3, -0.001
1177, 3, -0.001
1178, 3, -18123
1179, 3, -0.001
1180, 3, -0.001
1181, 3, -0.001
1182, 3, -0.001
1183, 3, -18123
1184, 3, -0.001
1185, 3, -0.001
1186, 3, -0.001
1187, 3, -0.001
1188, 3, -21556
1189, 3, -0.001
1190, 3, -0.001
1191, 3, -0.001
1192, 3, -0.001
1193, 3, -18123
1194, 3, -0.001
1195, 3, -0.001
1196, 3, -0.001
1197, 3, -0.001
1198, 3, -18123
1199, 3, -0.001
1200, 3, -0.001
1201, 3, -0.001
1202, 3, -0.001
1203, 3, -21556
1204, 3, -0.001
1205, 3, -0.001
1206, 3, -0.001
1207, 3, -0.001
1208, 3, -18123
1209, 3, -0.001
1210, 3, -0.001
1211, 3, -0.001
1212, 3, -0.001
1213, 3, -18123
1214, 3, -0.001
1215, 3, -0.001
1216, 3, -0.001
1217, 3, -0.001
1218, 3, -21556
1219, 3, -0.001
1220, 3, -0.001
1221, 3, -0.001
1222, 3, -0.001
1223, 3, -18123
1224, 3, -0.001
1225, 3, -0.001
1226, 3, -0.001
1227, 3, -0.001
1228, 3, -18123
1229, 3, -0.001
1230, 3, -0.001
1231, 3, -0.001
1232, 3, -0.001
1233, 3, -21556
1234, 3, -0.001
1235, 3, -0.001
1236, 3, -0.001
1237, 3, -0.001
1238, 3, -18123
1239, 3, -0.001
1240, 3, -0.001
1241, 3, -0.001
1242, 3, -0.001
1243, 3, -18123
1244, 3, -0.001
1245, 3, -0.001
1246, 3, -0.001
1247, 3, -0.001
1248, 3, -21556
1249, 3, -0.001
1250, 3, -0.001
1251, 3, -0.001
1252, 3, -0.001
1253, 3, -18123
1254, 3, -0.001
1255, 3, -0.001
1256, 3, -0.001
1257, 3, -0.001
1258, 3, -18123
1259, 3, -0.001
1260, 3, -0.001
1261, 3, -0.001
1262, 3, -0.001
1263, 3, -21556
1264, 3, -0.001
1265, 3, -0.001
1266, 3, -0.001
1267, 3, -0.001
1268, 3, -18123
1269, 3, -0.001
1270, 3, -0.001
1271, 3, -0.001
1272, 3, -0.001
1273, 3, -18123
1274, 3, -0.001
1275, 3, -0.001
1276, 3, -0.001
1277, 3, -0.001
1278, 3, -0.001
1279, 3, -0.001
1280, 3, -0.001
1281, 3, -0.001
1282, 3, -0.001
1283, 3, -0.001
1284, 3, -0.001
1285, 3, -0.001
1286, 3, -0.001
1287, 3, -0.001
1288, 3, -0.001
1289, 3, -0.001
1290, 3, -18123
1291, 3, -0.001
1292, 3, -0.001
1293, 3, -0.001
1294, 3, -0.001
1295, 3, -18123
1296, 3, -0.001
1297, 3, -0.001
1298, 3, -0.001
1299, 3, -0.001
1300, 3, -21556
1301, 3, -0.001
1302, 3, -0.001
1303, 3, -0.001
1304, 3, -0.001
1305, 3, -18123
1306, 3, -0.001
1307, 3, -0.001
1308, 3, -0.001
1309, 3, -0.001
1310, 3, -18123
1311, 3, -0.001
1312, 3, -0.001
1313, 3, -0.001
1314, 3, -0.001
1315, 3, -21556
1316, 3, -0.001
1317, 3, -0.001
1318, 3, -0.001
1319, 3, -0.001
1320, 3, -18123
1321, 3, -0.001
1322, 3, -0.001
1323, 3, -0.001
1324, 3, -0.001
1325, 3, -18123
1326, 3, -0.001
1327, 3, -0.001
1328, 3, -0.001
1329, 3, -0.001
1330, 3, -21556
1331, 3, -0.001
1332, 3, -0.001
1333, 3, -0.001
1334, 3, -0.001
1335, 3, -18123
1336, 3, -0.001
1337, 3, -0.001
1338, 3, -0.001
1339, 3, -0.001
1340, 3, -18123
1341, 3, -0.001
1342, 3, -0.001
1343, 3, -0.001
1344, 3, -0.001
1345, 3, -0.001
1346, 3, -0.001
1347, 3, -0.001
1348, 3, -0.001
1349, 3, -0.001
1350, 3, -0.001
1351, 3, -0.001
1352, 3, -0.001
1353, 3, -18123
1354, 3, -0.001
1355, 3, -0.001
1356, 3, -0.001
1357, 3, -0.001
1358, 3, -18123
1359, 3, -0.001
1360, 3, -0.001
1361, 3, -0.001
1362, 3, -0.001
1363, 3, -21556
1364, 3, -0.001
1365, 3, -0.001
1366, 3, -0.001
1367, 3, -0.001
1368, 3, -18123
1369, 3, -0.001
1370, 3, -0.001
1371, 3, -0.001
1372, 3, -0.001
1373, 3, -18123
1374, 3, -0.001
1375, 3, -0.001
1376, 3, -0.001
1377, 3, -0.001
1378, 3, -21556
1379, 3, -0.001
1380, 3, -0.001
1381, 3, -0.001
1382, 3, -0.001
1383, 3, -18123
1384, 3, -0.001
1385, 3, -0.001
1386, 3, -0.001
1387, 3, -0.001
1388, 3, -18123
1389, 3, -0.001
1390, 3, -0.001
1391, 3, -0.001
1392, 3, -0.001
1393, 3, -0.001
1394, 3, -0.001
1395, 3, -0.001
*NSET, NSET=N_MCT
1, 2, 3, 4, 5, 6, 7, 8, 9, 10, 11, 12, 13, 14, 15, 16
17, 18, 19, 20, 21, 22, 23, 24, 25, 26, 27, 28, 29, 30, 31, 32
33, 34, 35, 36, 37, 38, 39, 40, 41, 42, 43, 44, 45, 46, 47, 48
49, 50, 51, 52, 53, 54, 55, 56, 57, 58, 59, 60, 61, 62, 63, 64
65, 66, 67, 68, 69, 70, 71, 72, 73, 74, 75, 76, 77, 78, 79, 80
81, 82, 83, 84, 85, 86, 87, 88, 89, 90, 91, 92, 93, 94, 95, 96
97, 98, 99, 100, 101, 102, 103, 104, 105, 106, 107, 108, 109, 110, 111, 112
113, 114, 115, 116, 117, 118, 119, 120, 121, 122, 123, 124, 125, 126, 127, 128
129, 130, 131, 132, 133, 134, 135, 136, 137, 138, 139, 140, 141, 142, 143, 144
145, 146, 147, 148, 149, 150, 151, 152, 153, 154, 155, 156, 157, 158, 159, 160
161, 162, 163, 164, 165, 166, 167, 168, 169, 170, 171, 172, 173, 174, 175, 176
177, 178, 179, 180, 181, 182, 183, 184, 185, 186, 187, 188, 189, 190, 191, 192
193, 194, 195, 196, 197, 198, 199, 200, 201, 202, 203, 204, 205, 206, 207, 208
209, 210, 211, 212, 213, 214, 215, 216, 217, 218, 219, 220, 221, 222, 223, 224
225, 226, 227, 228, 229, 230, 231, 232, 233, 234, 235, 236, 237, 238, 239, 240
241, 242, 243, 244, 245, 246, 247, 248, 249, 250, 251, 252, 253, 254, 255, 256
257, 258, 259, 260, 261, 262, 263, 264, 265, 266, 267, 268, 269, 270, 271, 272
273, 274, 275, 276, 277, 278, 279, 280, 281, 282, 283, 284, 285, 286, 287, 288
289, 290, 291, 292, 293, 294, 295, 296, 297, 298, 299, 300, 301, 302, 303, 304
305, 306, 307, 308, 309, 310, 311, 312, 313, 314, 315, 316, 317, 318, 319, 320
321, 322, 323, 324, 325, 326, 327, 328, 329, 330, 331, 332, 333, 334, 335, 336
337, 338, 339, 340, 341, 342, 343, 344, 345, 346, 347, 348, 349, 350, 351, 352
353, 354, 355, 356, 357, 358, 359, 360, 361, 362, 363, 364, 365, 366, 367, 368
369, 370, 371, 372, 373, 374, 375, 376, 377, 378, 379, 380, 381, 382, 383, 384
385, 386, 387, 388, 389, 390, 391, 392, 393, 394, 395, 396, 397, 398, 399, 400
401, 402, 403, 404, 405, 406, 407, 408, 409, 410, 411, 412, 413, 414, 415, 416
417, 418, 419, 420, 421, 422, 423, 424, 425, 426, 427, 428, 429, 430, 431, 432
433, 434, 435, 436, 437, 438, 439, 440, 441, 442, 443, 444, 445, 446, 447, 448
449, 450, 451, 452, 453, 454, 455, 456, 457, 458, 459, 460, 461, 462, 463, 464
465, 466, 467, 468, 469, 470, 471, 472, 473, 474, 475, 476, 477, 478, 479, 480
481, 482, 483, 484, 485, 486, 487, 488, 489, 490, 491, 492, 493, 494, 495, 496
497, 498, 499, 500, 501, 502, 503, 504, 505, 506, 507, 508, 509, 510, 511, 512
513, 514, 515, 516, 517, 518, 519, 520, 521, 522, 523, 524, 525, 526, 527, 528
529, 530, 531, 532, 533, 534, 535, 536, 537, 538, 539, 540, 541, 542, 543, 544
545, 546, 547, 548, 549, 550, 551, 552, 553, 554, 555, 556, 557, 558, 559, 560
561, 562, 563, 564, 565, 566, 567, 568, 569, 570, 571, 572, 573, 574, 575, 576
577, 578, 579, 580, 581, 582, 583, 584, 585, 586, 587, 588, 589, 590, 591, 592
593, 594, 595, 596, 597, 598, 599, 600, 601, 602, 603, 604, 605, 606, 607, 608
609, 610, 611, 612, 613, 614, 615, 616, 617, 618, 619, 620, 621, 622, 623, 624
625, 626, 627, 628, 629, 630, 631, 632, 633, 634, 635, 636, 637, 638, 639, 640
641, 642, 643, 644, 645, 646, 647, 648, 649, 650, 651, 652, 653, 654, 655, 656
657, 658, 659, 660, 661, 662, 663, 664, 665, 666, 667, 668, 669, 670, 671, 672
673, 674, 675, 676, 677, 678, 679, 680, 681, 682, 683, 684, 685, 686, 687, 688
689, 690, 691, 692, 693, 694, 695, 696, 697, 698, 699, 700, 701, 702, 703, 704
705, 706, 707, 708, 709, 710, 711, 712, 713, 714, 715, 716, 717, 718, 719, 720
721, 722, 723, 724, 725, 726, 727, 728, 729, 730, 1001, 1002, 1003, 1004, 1005, 1006
1007, 1008, 1009, 1010, 1011, 1012, 1013, 1014, 1015, 1016, 1017, 1018, 1019, 1020, 1021, 1022
1023, 1024, 1025, 1026, 1027, 1028, 1029, 1030, 1031, 1032, 1033, 1034, 1035, 1036, 1037, 1038
1039, 1040, 1041, 1042, 1043, 1044, 1045, 1046, 1047, 1048, 1049, 1050, 1051, 1052, 1053, 1054
1055, 1056, 1057, 1058, 1059, 1060, 1061, 1062, 1063, 1064, 1065, 1066, 1067, 1068, 1069, 1070
1071, 1072, 1073, 1074, 1075, 1076, 1077, 1078, 1079, 1080, 1081, 1082, 1083, 1084, 1085, 1086
1087, 1088, 1089, 1090, 1091, 1092, 1093, 1094, 1095, 1096, 1097, 1098, 1099, 1100, 1101, 1102
1103, 1104, 1105, 1106, 1107, 1108, 1109, 1110, 1111, 1112, 1113, 1114, 1115, 1116, 1117, 1118
1119, 1120, 1121, 1122, 1123, 1124, 1125, 1126, 1127, 1128, 1129, 1130, 1131, 1132, 1133, 1134
1135, 1136, 1137, 1138, 1139, 1140, 1141, 1142, 1143, 1144, 1145, 1146, 1147, 1148, 1149, 1150
1151, 1152, 1153, 1154, 1155, 1156, 1157, 1158, 1159, 1160, 1161, 1162, 1163, 1164, 1165, 1166
1167, 1168, 1169, 1170, 1171, 1172, 1173, 1174, 1175, 1176, 1177, 1178, 1179, 1180, 1181, 1182
1183, 1184, 1185, 1186, 1187, 1188, 1189, 1190, 1191, 1192, 1193, 1194, 1195, 1196, 1197, 1198
1199, 1200, 1201, 1202, 1203, 1204, 1205, 1206, 1207, 1208, 1209, 1210, 1211, 1212, 1213, 1214
1215, 1216, 1217, 1218, 1219, 1220, 1221, 1222, 1223, 1224, 1225, 1226, 1227, 1228, 1229, 1230
1231, 1232, 1233, 1234, 1235, 1236, 1237, 1238, 1239, 1240, 1241, 1242, 1243, 1244, 1245, 1246
1247, 1248, 1249, 1250, 1251, 1252, 1253, 1254, 1255, 1256, 1257, 1258, 1259, 1260, 1261, 1262
1263, 1264, 1265, 1266, 1267, 1268, 1269, 1270, 1271, 1272, 1273, 1274, 1275, 1276, 1277, 1278
1279, 1280, 1281, 1282, 1283, 1284, 1285, 1286, 1287, 1288, 1289, 1290, 1291, 1292, 1293, 1294
1295, 1296, 1297, 1298, 1299, 1300, 1301, 1302, 1303, 1304, 1305, 1306, 1307, 1308, 1309, 1310
1311, 1312, 1313, 1314, 1315, 1316, 1317, 1318, 1319, 1320, 1321, 1322, 1323, 1324, 1325, 1326
1327, 1328, 1329, 1330, 1331, 1332, 1333, 1334, 1335, 1336, 1337, 1338, 1339, 1340, 1341, 1342
1343, 1344, 1345, 1346, 1347, 1348, 1349, 1350, 1351, 1352, 1353, 1354, 1355, 1356, 1357, 1358
1359, 1360, 1361, 1362, 1363, 1364, 1365, 1366, 1367, 1368, 1369, 1370, 1371, 1372, 1373, 1374
1375, 1376, 1377, 1378, 1379, 1380, 1381, 1382, 1383, 1384, 1385, 1386, 1387, 1388, 1389, 1390
1391, 1392, 1393, 1394, 1395
*NODE FILE, NSET=N_MCT
U
*EL FILE
S, E
*NODE PRINT, NSET=N_MCT
U
*END STEP
*STEP, PERTURBATION
*FREQUENCY
40
*NODE FILE, NSET=N_MCT
U
*NODE FILE
U
*END STEP
