*HEADING
TRACK A five-frequency scalar equivalent; TARGET-CONDITIONED; frequency_reproduced=false
** status=TARGET_CONDITIONED_W2_ALGEBRA
** frequency_reproduced=false
** back_tuned=true
** This file is the retained Track A numerical-equivalent deck only.
** It is not the undisclosed APDL, not C3, and not a causal proof.
** The failed NLGEOM-MPC and T3D2 formulations are removed.
** Each generalized coordinate uses a native one-node SPRING1 element to ground.
** SIDE3 and VS2 retain explicit parallel MASS elements for eta=0.13669681810894577.
** Algebraic W2 frequencies expected from the scalar K/M values [Hz]:
** TA1=0.0996000000; TS1=0.1150435687; SIDE3=0.1556126225;
** TS2=0.1566294277; VS2=0.1751835898.
** The sixth oscillator is fixed at 5 Hz so five requested roots remain below it.
** ----------------------------------------------------------------
** ONE ACTIVE X-TRANSLATION AT EACH GENERALIZED NODE.
** ----------------------------------------------------------------
*NODE
** Node 1 represents TA1.
1, 0.0, 0.0, 0.0
** Node 2 represents TS1.
2, 0.0, 1000.0, 0.0
** Node 3 represents TS2.
3, 0.0, 2000.0, 0.0
** Node 4 represents SIDE3.
4, 0.0, 3000.0, 0.0
** Node 5 represents VS2.
5, 0.0, 4000.0, 0.0
** Node 6 is a 5 Hz dummy oscillator.
6, 0.0, 5000.0, 0.0
** ----------------------------------------------------------------
** NATIVE ONE-NODE SPRINGS TO GROUND; NO TRUSS EXPANSION AND NO EQUATIONS.
** ----------------------------------------------------------------
*ELEMENT, TYPE=SPRING1, ELSET=SP_TA1
** TA1 total scalar stiffness element.
1, 1
*ELEMENT, TYPE=SPRING1, ELSET=SP_TS1
** TS1 total scalar stiffness element.
2, 2
*ELEMENT, TYPE=SPRING1, ELSET=SP_TS2
** TS2 total scalar stiffness element.
3, 3
*ELEMENT, TYPE=SPRING1, ELSET=SP_SIDE3
** SIDE3 baseline scalar stiffness element.
4, 4
*ELEMENT, TYPE=SPRING1, ELSET=SP_VS2
** VS2 baseline scalar stiffness element.
5, 5
*ELEMENT, TYPE=SPRING1, ELSET=SP_DUMMY
** Dummy 5 Hz scalar stiffness element.
6, 6
** ----------------------------------------------------------------
** NODAL MASS ELEMENTS.
** ----------------------------------------------------------------
*ELEMENT, TYPE=MASS, ELSET=MS_TA1
** TA1 unit generalized mass.
101, 1
*ELEMENT, TYPE=MASS, ELSET=MS_TS1
** TS1 unit generalized mass.
102, 2
*ELEMENT, TYPE=MASS, ELSET=MS_TS2
** TS2 unit generalized mass.
103, 3
*ELEMENT, TYPE=MASS, ELSET=MS_SIDE3_BASE
** SIDE3 baseline unit generalized mass.
104, 4
*ELEMENT, TYPE=MASS, ELSET=MS_SIDE3_DUP13
** SIDE3 duplicate passage mass fraction.
105, 4
*ELEMENT, TYPE=MASS, ELSET=MS_VS2_BASE
** VS2 baseline unit generalized mass.
106, 5
*ELEMENT, TYPE=MASS, ELSET=MS_VS2_DUP13
** VS2 duplicate passage mass fraction.
107, 5
*ELEMENT, TYPE=MASS, ELSET=MS_DUMMY
** Dummy unit generalized mass.
108, 6
** ----------------------------------------------------------------
** SPRING DIRECTIONS AND STIFFNESSES IN N/mm.
** With mass in tonnes and length in mm, f=(1/2pi)*sqrt(k/m).
** ----------------------------------------------------------------
*SPRING, ELSET=SP_TA1
** Active global degree of freedom: UX.
1
** kTA1=kbase+kshared+kextra=0.3916322191820424 N/mm.
3.916322191820E-01
*SPRING, ELSET=SP_TS1
** Active global degree of freedom: UX.
1
** kTS1=kbase+kshared=0.5224977528474039 N/mm.
5.224977528474E-01
*SPRING, ELSET=SP_TS2
** Active global degree of freedom: UX.
1
** kTS2=kbase+kshared=0.9685152404605354 N/mm.
9.685152404605E-01
*SPRING, ELSET=SP_SIDE3
** Active global degree of freedom: UX.
1
** kSIDE3=1.0866608605898116 N/mm before duplicate mass.
1.086660860590E+00
*SPRING, ELSET=SP_VS2
** Active global degree of freedom: UX.
1
** kVS2=1.3771816391437006 N/mm before duplicate mass.
1.377181639144E+00
*SPRING, ELSET=SP_DUMMY
** Active global degree of freedom: UX.
1
** kDUMMY=986.9604401089358 N/mm for 5 Hz at one tonne.
9.869604401089E+02
** ----------------------------------------------------------------
** GENERALIZED MASSES IN TONNES.
** ----------------------------------------------------------------
*MASS, ELSET=MS_TA1
** TA1 baseline mass.
1.0
*MASS, ELSET=MS_TS1
** TS1 baseline mass.
1.0
*MASS, ELSET=MS_TS2
** TS2 baseline mass.
1.0
*MASS, ELSET=MS_SIDE3_BASE
** SIDE3 baseline mass.
1.0
*MASS, ELSET=MS_SIDE3_DUP13
** Thirteen-passage duplicate fraction relative to the audited MASS21 pool.
1.366968181089E-01
*MASS, ELSET=MS_VS2_BASE
** VS2 baseline mass.
1.0
*MASS, ELSET=MS_VS2_DUP13
** Thirteen-passage duplicate fraction relative to the audited MASS21 pool.
1.366968181089E-01
*MASS, ELSET=MS_DUMMY
** Dummy oscillator mass.
1.0
** ----------------------------------------------------------------
** LEAVE UX ACTIVE AND FIX UY-UZ AT ALL GENERALIZED NODES.
** ----------------------------------------------------------------
*NSET, NSET=N_GENERALIZED
1, 2, 3, 4, 5, 6
*BOUNDARY
** Fix global UY and UZ only.
N_GENERALIZED, 2, 3
** ----------------------------------------------------------------
** EXTRACT THE FIVE LOWEST MODES.
** ----------------------------------------------------------------
*STEP
*FREQUENCY
5
*NODE FILE
U
*END STEP
